x,y,u_x,u_y,eps_xx,eps_yy,gamma_xy,sigma_xx,sigma_yy,sigma_xy
0.9369231924019747,0.06669348057338154,0.0037577012821152903,-0.13736204822810424,0.000493318352240632,-0.00015946104508846037,-0.0006773718959362518,120137984.49769212,14689004.929146426,-54710806.9794665
0.930190611946776,0.02016456304430221,-0.006714298171342779,-0.13584588352278834,-0.0009973728751964108,0.000336759514139251,-0.0012318495525796003,-241149929.35211456,-25636235.690199975,-99495540.78527541
0.3900418781406739,0.025914741690177382,-0.0034112403383909683,-0.03020455451947343,-0.006843901521742106,0.002971226042574923,0.0030316450844697362,-1574742851.9497488,10777754.593771283,244863641.43794024
0.5521399956281015,0.055487140961736986,0.0009914072171973228,-0.056597456887743494,0.0010602476350104612,-0.002181613095752599,-0.005750248474093528,35413033.2963924,-488272161.6730251,-464443145.9844773
0.7301289888725333,0.05641525815326738,0.0013446730369993517,-0.0918071531422629,0.0008020764544260824,-0.0013145508460272737,-0.0006873950664811612,67477952.88637668,-274438764.8791655,-55520370.75424764
0.6118330081847769,0.026184279018762472,-0.00457127091479027,-0.06786819034135429,-0.004060384971314503,0.0018908366770065133,-0.003488728416576631,-918757461.7919647,42593727.55219952,-281781910.56965095
0.8786814469265496,0.014252708161137224,-0.007965121456154701,-0.12425145738561831,-0.002037118064750731,0.0006145241921242661,-0.001002072905414375,-501425637.335632,-73083426.609671,-80936657.74500723
0.12015909037639724,0.09794499286720762,0.002406964130694727,-0.0033989925080949047,0.01903758445590257,-0.004206881527762801,-0.0031295262427227244,4872098805.324271,1117223531.0398655,-252769427.29683545
0.3912452516674373,0.02203083250423113,-0.0039708895287983905,-0.030382859571571028,-0.007947526471329921,0.0029653634672161255,0.0033925090028687765,-1887439409.3286202,-124587957.71733576,274010342.5394012
0.4736545989833634,0.06503585315178653,0.002453529871676641,-0.04307044263679069,0.003588885663481152,-0.002563931109221651,-0.0016077644992269768,703920255.0976256,-289996300.4928272,-129857901.86064045
0.09309239902218164,0.03985105915224218,-0.00039848627312365643,-0.0019345929981439984,-0.004311038089193054,0.004406457491466112,0.006076157092708985,-684838032.9788728,723372791.5891461,490766534.41111034
0.7543615953777842,0.05027750460665689,5.898054189826219e-05,-0.09692054045462214,2.8694084243923584e-05,-0.0011965632935582171,-0.003469439247054923,-136856648.28905943,-334782840.0878668,-280223939.18520534
0.7851387920894788,0.06880991444668341,0.004057012520759653,-0.10358799357707946,0.001924358512051444,-0.0010472986777828597,-0.00023138668839250975,417117085.7139271,-62919844.95161426,-18688924.831702713
0.16784154443438135,0.0436861533083026,-0.00043405143372845655,-0.0061153756965211725,-0.0023690335293920536,0.00406891224658381,-0.004026644623776582,-176743187.0881767,863232669.0310013,-325228988.84349316
0.1771226134430088,0.07982888301115268,0.002154490381950551,-0.006885265443832796,0.01119216659008719,-0.004017948669200945,-0.00041514833241446114,2677149466.506072,220130847.6979886,-33531211.46424494
0.3751198755248115,0.01608247795651257,-0.004659987474878422,-0.028166290150633707,-0.009637770030991557,0.0030439228095310022,-0.0011605879953414389,-2355740495.2986646,-307159344.1373283,-93739799.62373161
0.7621715868434076,0.05434955397308125,0.000927915093685495,-0.09861225989186803,0.0004452205478198863,-0.0011586860500181206,-0.002650813061972901,-14518847.349265981,-273611451.61540556,-214104131.92858046
0.3970834301415961,0.08652594844593287,0.005246322636001483,-0.031217052584332827,0.010378962556113092,-0.0029369211252929517,0.005093132471186285,2578233586.259939,427206222.34050167,411368391.90350765
0.5331985774098094,0.012246581225216801,-0.006668628481637033,-0.053311476016032255,-0.008153087988130648,0.002273880364110914,0.0005945634535053645,-2029325906.3773417,-344969480.24601245,48022432.7831256
0.944326758319815,0.0034716473516123725,-0.010488831368173804,-0.1390462215201157,-0.001469267019185035,0.000245966204587722,-0.0007250181761053465,-385550732.55994934,-108474596.41204244,-58559160.37773953
0.6310434515015878,0.00026052082678767465,-0.009710073576525197,-0.07166912020664416,-0.008480172678799136,0.0017972576121020878,-8.722435198085798e-05,-2179534911.963541,-519334634.2025743,-7045043.813838529
0.3336815888427216,0.037385399755470984,-0.0015799280172336648,-0.022596894575778972,-0.0038712257922692067,0.0032457367996717584,0.0013658600311811653,-701132255.931255,448530931.99767005,110319464.05694027
0.5512267466198996,0.043717680308435036,-0.0011339701565963292,-0.05642893952437173,-0.001213895183051605,0.0021860616723028414,-0.005922836653244501,-78309051.06443636,470914748.64666647,-478382960.4543636
0.14336987005351814,0.06936308460447473,0.0011505342266985887,-0.0045175216788547355,0.0076885267144676285,-0.004175769607482512,0.006048498636693551,1667576811.0679674,-248963364.01628602,488532582.19447917
0.4218442900822491,0.0733252950736942,0.003502807584965682,-0.034908177729690563,0.006097715974570067,-0.002816306703220528,-0.002071220910188243,1382571011.4594357,-57386498.029814176,-167290919.6690504
0.13105475342809705,0.009378882543351359,-0.0022150278294806695,-0.003949377860852908,-0.016129483143650137,0.004192276891253847,0.0011870127323974772,-4051770342.245342,-769024490.4531599,95874105.309027
0.9904460149544037,0.08344201102273258,0.007579069474843181,-0.14954889398293172,0.0007447151541772057,-0.0014176154181183565,-0.0014067792182819727,38775685.23575535,-310523868.75045085,-113624475.32277472
0.9785987584576504,0.044145099431686874,-0.0013271287672817584,-0.1468108197142131,3.3396891536852146e-05,-0.00014684030566813888,-0.001257362025414488,-8349223.463799007,-37464463.012297556,-101556163.59117019
0.9610326874383084,0.06212312940979274,0.0027349686927800486,-0.1428285492896782,0.0003276060543055681,-0.000418932333264177,-0.0012584091620825855,41856448.05245261,-78738214.55496775,-101640740.01436268
0.24200407945518096,0.058025852344459075,0.0007673627556009796,-0.012282115896438909,0.0028277230859848276,-0.003692287985367252,0.004672061361246607,352040674.1569861,-701191883.5229652,377358802.2545337
0.5005897379039582,0.008598969926008494,-0.007021379936567944,-0.04757982922112311,-0.008940812566921984,0.0024327243441891744,-0.006429752104235076,-2232765026.2569494,-395501371.38514686,-519326131.49591
0.2300421387926979,0.054598426563540275,0.0004202817469742551,-0.011181454963664714,0.0016201490377414172,-0.00374925487676267,0.0004412261846761384,3767021.753730996,-863598225.9738522,35637499.531534255
0.22395811087068793,0.09028859287484772,0.0035958895982253092,-0.010762923975941566,0.014194752069254163,-0.003778229118289095,-0.0015323711707420778,3555000230.24644,651672499.9509909,-123768440.71378322
0.09068029372796076,0.03151084643728784,-0.0007070108352573041,-0.001891794175223609,-0.007853769811201982,0.004466712817726319,0.005259891649272229,-1679040874.480641,311190934.807777,424837402.4412185
0.7930943059622944,0.020283778073719547,-0.00643351154894999,-0.10531669639098984,-0.003039876885616695,0.0010080976287107912,0.0006363768689089666,-737214906.8786044,-83311331.48724125,51399670.18110885
0.2990189482815453,0.015218131693134579,-0.003985523826247307,-0.018394183172406507,-0.011464851854407768,0.003414490985208269,0.0067269030267964325,-2827346712.557348,-423760561.5424497,543326782.933558
0.010377853382290659,0.05084593682482816,3.680013232568413e-06,-9.411653848042397e-05,0.00035460254611499836,-0.001138019283211629,-0.00471875710274253,-37632001.08351512,-278747835.0516626,-381130381.3753582
0.46633391837035576,0.08568138512562581,0.005760091117230656,-0.041917764049432066,0.008516737310939243,-0.002599591697144188,-0.0032545582175571575,2092665591.8999708,296950905.9788013,-262868163.7257704
0.7507282646223203,0.04118596176754318,-0.0018700252393433591,-0.09614608532018787,-0.0009014317319082085,0.0012141177020745797,-0.0037996211280504066,-107732787.23040023,234009813.64374244,-306892475.72714823
0.2934492050442229,0.09132281168829554,0.0046591611480786095,-0.017815946461779374,0.013620887470280382,-0.0034417287350005446,0.004922983082074284,3433541438.1272726,677272666.5049691,397625556.6290768
0.2083194654840149,0.041674256730288774,-0.0006972258744572728,-0.009220015708057644,-0.002933382703955754,0.0038527057469939507,-0.00719450359488269,-362474606.57860947,733739681.6517276,-581094521.1251403
0.8466921866219013,0.05055166603299741,0.0001219634232247062,-0.11707704188439748,4.5495075538790064e-05,-0.0007432571212829253,0.0003627941938776358,-77187351.03196567,-204601167.44162738,29302607.967039816
0.1338992961917429,0.006369197232790153,-0.002428423282984336,-0.004113717307506269,-0.017324543041650153,0.00418846404270125,0.0023205334584694357,-4390066523.908449,-914888456.4362999,187427702.41483903
0.9033847776811832,0.06468761733092177,0.003291501058454637,-0.1297764855028403,0.00041554343471593425,-0.00045472805816837436,-0.0019954426112365198,62378879.305066824,-78203438.77624457,-161170364.7537189
0.6016835341167351,0.005984705246478733,-0.008372282017436623,-0.06592384960390632,-0.0075042462816242925,0.0019402774044741111,-0.005120732951304774,-1886320628.6863499,-360666802.470454,-413597661.45153946
0.8576074761565364,0.06195195627820651,0.0026487220303909975,-0.11951815300927135,0.0006717548022920142,-0.0006899585501305427,-0.002281635703653695,106308783.22827287,-113660296.77844785,-184285960.67972153
0.6229218326847741,0.0026971494998792424,-0.009168899431041185,-0.07007844475990864,-0.008064747516394688,0.0018368201293148534,-0.0014837630615311403,-2057304263.0061219,-457820258.6991959,-119842401.12366903
0.7493363371526689,0.00478654476622975,-0.009585564744215064,-0.0958936903919209,-0.00565287852608914,0.0012208941395293813,0.001903114194322847,-1450109254.893755,-339730593.5246092,153713069.54146072
0.6596373417407803,0.09662636819659629,0.009319426158218591,-0.07732519072584973,0.006889499108114178,-0.0016579723616376718,-0.0034027354100495955,1746738673.287713,365993282.0201066,-274836321.58092886
0.39243699027118606,0.07497604446243888,0.0035544022145952924,-0.03053915394872698,0.007097021194648223,-0.0029595575746485664,0.0037165634090229605,1647711516.173902,23187253.441343796,300183967.6518545
0.9980726684790533,0.061104804248410936,0.002516026525312933,-0.15125166297602785,0.0003076822750402164,-0.0016765663941667452,-0.0004991373085506401,-116143054.61844835,-436675531.9518806,-40314936.45985939
0.4332173861516111,0.0344717598706154,-0.0023780757834003254,-0.03661812823050147,-0.004059404076028646,0.002760907317439276,0.0008639621526689845,-813067765.7260318,288674843.9880171,69781558.48480259
0.029010174807033644,0.051876105226892365,2.281452640605689e-05,-0.00026636986030330936,0.0007864318832206899,-0.0031812107112711404,0.0029786332491051077,-163097669.18584695,-804024549.8345273,240581916.2738741
0.9616624555444823,0.09557612190631588,0.010302442596651576,-0.14298652121774413,0.0009821219825599248,-0.0004403151147482909,-0.0023819311256629283,224292460.01378193,-5485840.320622113,-192386744.7650827
0.9063875460101304,0.05452141402641775,0.0010126036300594304,-0.13045125494136892,2.1361215903722974e-05,-0.00042829215048323377,-0.001968515587191716,-45850589.889608555,-118486902.92134772,-158995489.73471552
0.6479670688486875,0.054878626223964055,0.0009664752609644618,-0.07489747373520696,0.0008317654428631575,-0.0017148168934360622,0.002579584807433366,27377030.412331235,-383993962.3744658,208351080.60038728
0.08944917682057205,0.06072569890698758,0.00040453336671240626,-0.0018162768868792618,0.004556031729307356,-0.004497466595804638,0.0045430072178086894,743069747.4470946,-719418443.5325351,366935198.3614711
0.6672148603908692,0.020295065631102657,-0.005970520705180312,-0.07883809782966106,-0.004389191105369596,0.0016210673184852142,-0.0023655132519717625,-1044392021.9706962,-73504122.73261157,-191060685.73618084
0.9334607005578718,0.019705586216273514,-0.006820812972663174,-0.1365854069124125,-0.001010347749170516,0.0003157564656639522,-0.0011364590986249479,-247362426.52160934,-33145591.817579858,-91790927.1966304
0.29728221640307817,0.07035680412152974,0.002320956286943584,-0.01815748364181187,0.0067100404562365976,-0.003422984135852727,0.006083895866843922,1482169127.9001117,-154704075.43739468,491391589.245086
0.3399538280487011,0.0940773022492098,0.005605347419406209,-0.023475059367273707,0.013526642621501675,-0.003215204550818543,0.0034438686331362822,3434343420.4984193,729891184.9697686,278158620.3686997
0.3364663335057029,0.012808441806906668,-0.0046898770158975145,-0.023021306268419677,-0.011413514224860017,0.0032321811117815985,0.002340091783337467,-2834921501.946503,-469078409.1043963,189007413.26956463
0.5195425292306384,0.09752133623856205,0.008253852768065922,-0.050930300883459054,0.010262531132472691,-0.0023404016331478594,-0.002306964564000702,2617589949.2022505,581731579.3712387,-186331753.24621055
0.9121844397395134,0.03903249054755792,-0.0024630815242039426,-0.13176608902801967,-0.00046399304737590626,0.0004524091348987458,-0.0018620527934707087,-76356158.58776392,71678040.08737218,-150396571.7803265
0.46582225192500604,0.05335697285555263,0.0005415103892558106,-0.0417493889996874,0.000801270910749767,-0.0026020841329197353,-0.003534146196403798,-88739377.872553,-638512115.6960881,-285450269.70953757
0.034997238188544305,0.02290404729474408,-0.00039750456238428304,-0.000418130040977806,-0.01135816947162416,0.0038377427826909918,0.0027227406218575233,-2745909840.4215746,-291185553.1860505,219913665.6115692
0.8499496192292465,0.06364022415782694,0.0030169653289523466,-0.11780499374100503,0.0010857725676043511,-0.0007270741802474718,0.0006867186822498705,218851719.3889402,-73992755.26404658,55465739.72018185
0.5692432027313201,0.02463391452161054,-0.004666929406415685,-0.05982769469407007,-0.004901337683635613,0.0020983002572310117,-0.002348663576494603,-1131353314.0170796,-642569.7232402294,-189699750.40917948
0.5386770872757242,0.027708123370790698,-0.003963931067518599,-0.05424117795048493,-0.004814070813594913,0.002247193480272358,0.001702365911926934,-1088644654.5024877,52021116.045302145,137498785.19409853
0.9829383589394849,0.024060521774674486,-0.005861125562071408,-0.14779173270484777,-0.00016219416227084563,-0.00020091597887517132,-0.0009648278760673867,-70192785.62105788,-76447848.3032951,-77928405.37467355
0.029594465136358758,0.036587232852602555,-0.0001663921368802366,-0.0003091745163362492,-0.00562240730195907,0.0032452830812757655,0.001958465539648126,-1196232767.8223271,236240294.08483863,158183755.12542558
0.6249085749873218,0.019996732004492687,-0.005825815434161087,-0.07043488197072983,-0.005115310882543633,0.0018271421909240582,-0.0012293105927278503,-1224693734.0494199,-103220545.25848529,-99290470.95109561
0.09120700235344151,0.07904064540018485,0.0011169890404790711,-0.001956156326415284,0.012335802359378286,-0.004453555431874399,0.005747205794527706,2947671066.5779247,235544038.76018327,464197391.09646857
0.549085288660524,0.07412368800476342,0.004343886120323807,-0.05607826444328001,0.005209661995825898,-0.002196493137382006,0.003959005472916416,1206617780.2525783,10238874.118993722,319765826.6586336
0.41756140156805077,0.0595201518863723,0.0014190017057170467,-0.03421696921047106,0.0024887651818340586,-0.0028371690429502827,-0.0032581029176813048,359820830.81488234,-500522390.11181897,-263154466.4281054
0.8170829682185718,0.0492852498381567,-0.0001561764787876892,-0.11054679429617974,-5.525269561276098e-05,0.0008900673294589545,-0.0019866804588217213,92215568.27084282,244921110.78242764,-160462652.4432929
0.7990527002109922,0.026392851081869215,-0.005125293777156328,-0.10659690785935076,-0.0024148743615124988,0.0009791227993091456,0.0012162563029872453,-564041913.0497329,-15780833.224698128,98236086.01050828
0.11694115861894372,0.040799035523919086,-0.00045015597933511625,-0.003064214655935463,-0.0036534396568641894,0.004211194869998148,-0.0044592076594707625,-522596832.20990866,747844129.8216997,-360166772.49571544
0.8617253734236271,0.04977636605720458,-4.965746681438717e-05,-0.12043227526236575,-2.47445137191599e-05,0.0006812213803126799,-0.002102347879529398,75537506.62111984,189578151.0416478,-169805021.03891295
0.8393974387631273,0.0918370924747289,0.009218284555946294,-0.11550034755151405,0.0033268572751066205,-0.0007794974641226471,-1.1885549225432168e-05,846037844.6172047,182703617.5109384,-959986.6682079829
0.209926524181416,0.022664034679934813,-0.002304683999265706,-0.009439253522788417,-0.009631193908841474,0.003845052378626368,-0.0065377604632846364,-2256821547.5889144,-79889454.99795525,-528049883.5729899
0.2620943164461475,0.0685672117686588,0.0019015627814883435,-0.014353223804569874,0.006120152327616535,-0.0035950637405784414,-0.00552354440657607,1294564185.5830553,-274816871.5869023,-446132432.83883643
0.738522004099344,0.008734917094619349,-0.00869268898168049,-0.09361652946403988,-0.005159227950626607,0.001273608034690621,0.0005317914868884221,-1304171543.3780808,-265021114.98068258,42952389.32560333
0.4465018521573461,0.06447849000436665,0.00226759297384936,-0.03863827311790596,0.00378497761793703,-0.0026961974743172357,0.0043316837016540155,743329363.3745337,-303629689.9896168,349866760.518209
0.5817381074993201,0.04940578681353028,-0.00011075976177391534,-0.062105420443318904,-0.00011481621147789946,0.002037435317043035,-5.501575067984321e-05,214385465.16626918,562056865.9273431,-4443579.862602721
0.42297019791859913,0.0971321430906745,0.007091803637487884,-0.03514650645081335,0.012321319877666853,-0.0028108223036829028,-0.001660919923471449,3142600417.086547,698177449.3300481,-134151224.58807857
0.6219242421924879,0.0044070010442479775,-0.008829717611400185,-0.06988044864502845,-0.00777323188114378,0.001841679652017425,-0.0016621731728938827,-1974306285.482765,-421128268.58749354,-134252448.57989052
0.8870467473491451,0.019434138395468342,-0.006825230035831235,-0.12612070328185793,-0.0017435961197249938,0.0005816190495252505,-0.0005485697492468855,-422435825.92208326,-46824144.73550538,-44307556.669940755
0.17896079752403896,0.056993447957604866,0.0005099485084964395,-0.006927276416251378,0.0026240283470005555,-0.004007854957305157,0.00014916872237230594,256225585.95933995,-815078640.1208137,12048242.960840097
0.2532219937542289,0.005672170093271473,-0.0044102018591512,-0.013489286128759374,-0.01461140610459159,0.0036384521150957527,-0.008322075474458512,-3689719642.5460215,-741665622.4426816,-672167634.4754952
0.20973056017294522,0.07708840854603675,0.0022819423142005427,-0.009420498612246715,0.009543973016285581,-0.0038459856268933112,-0.0066079827913141514,2232051805.5763497,69058486.29360554,-533721686.9907584
0.7488974344516016,0.009328635221817604,-0.008620378435900146,-0.09579592014651422,-0.00508499754103567,0.0012230335475585316,0.001826099612208032,-1289314471.2231846,-270324833.83489054,147492660.98603335
0.7395734604799593,0.0004230202186425558,-0.010450147482501719,-0.09384800815817923,-0.0061984340676659215,0.0012684827661103015,0.0007037671411721791,-1598568064.7729642,-392373807.0091129,56842730.63313755
0.020193629866046725,0.058578436967279844,7.261502228489018e-05,-0.00020025847760120257,0.0035959370735512987,-0.00221440208673742,-0.0014520819870309214,748260419.8991989,-190332829.0705172,-117283545.10634366
0.6538190136554263,0.01720783142782963,-0.0065261292969528975,-0.07611912783693442,-0.004845359237597733,0.001686314154719426,-0.004329839731427726,-1165442338.8068132,-110325867.74019524,-349717824.4614702
0.10412259416206918,0.06444879835704177,0.0006333628401060252,-0.0024020972515263776,0.0057372042951463025,-0.004228376979390686,-0.009542058491273937,1109579387.8555639,-500245279.56964177,-770704724.2952026
0.23877883265897862,0.05602337239625171,0.0005690582951611825,-0.011981389685335946,0.0021221956808268917,-0.003707647724154342,0.0035261838921744476,150732612.42274913,-791011322.2280656,284807160.52178234
0.9537348755388395,0.002694516638504507,-0.010673739616870513,-0.14117428214001032,-0.00037026423133626826,0.00016298803290437647,-0.0009829808556285902,-84924222.9489533,1216527.428381613,-79394607.57000151
0.5666424578593563,0.011060840375453292,-0.007144576832843154,-0.05937174582105541,-0.0075239820311507844,0.0021109689557138323,-0.002785073133603877,-1871219835.3253727,-314804675.9087808,-224948214.63723624
0.7918626149528994,0.06708594630386847,0.0036969330956808147,-0.10503802275742014,0.0017480152781591818,-0.0010146891829796445,0.00044802645173014355,371216975.6955425,-75066052.64226787,36186751.8705116
0.8356696787058748,0.09916740763732335,0.010818841053957477,-0.11468479436899096,0.003909470103858781,-0.00079801699421711,-0.0002717505617140792,1008494297.3683901,248054073.83305386,-21949083.83075255
0.8712165057837242,0.02017952568447742,-0.006631863573729122,-0.12257689340381693,-0.0017013708041320693,0.0006438877463774695,-0.0014482663669615203,-402954961.8954492,-24105503.73621605,-116975360.4084305
0.8541680760201629,0.09036940465689339,0.008938513759258531,-0.11876816805127528,0.0022976580104643596,-0.0007066256610928079,-0.0023407117294322044,563919828.6334884,78612466.30502287,-189057485.83875498
0.0486682808988718,0.0868129890362749,0.0007510191416614557,-0.0006333237693014785,0.01543138832501613,-0.005336888092694491,0.007387857601512435,3715750257.5723424,360874836.24985754,596711575.5067736
0.022791206077592913,0.0646321079069633,0.00013979064928353646,-0.00024114804237094765,0.006133534522377518,-0.002499248259588139,-0.0010270577056821825,1431109489.2989278,36583039.904475406,-82954660.84356089
0.5588369234061998,0.056087459429844555,0.0011077489466825342,-0.05784724538896277,0.001176243597308061,-0.0021489911492940106,-0.004453316744343794,72156473.84377368,-464996831.3765609,-359690967.81238335
0.5037211075384164,0.0412975776834816,-0.0014817663948141768,-0.04805197775461636,-0.0018793427693013008,0.002417470835528124,-0.005912794415242145,-238389854.70965272,455710804.53202355,-477571856.61571175
0.9807606458772263,0.05175453784582808,0.00039211974265494906,-0.14730442565207344,0.00012474204048426932,-0.0010887640067078763,-0.0005203777087799955,-96644331.6757858,-292672231.60682476,-42030507.24761502
0.6552165649998485,0.039325497002372534,-0.0021265891979202938,-0.07636616573657201,-0.0015772643895652632,0.001679507134192848,-0.004231066260712568,-242401761.17681587,283692100.35334057,-341739967.21139973
0.7082169475469826,0.0775296286955203,0.005694941412636157,-0.08722921677946516,0.003441947073476767,-0.0014213315935589499,-0.0033241026546060315,800812171.9362901,15205618.030520568,-268485214.4104872
0.6954143420713,0.06970113468497258,0.004041904112436911,-0.08455789442504613,0.00291103106233985,-0.0014837098521031655,0.0017525208859688057,643168933.6181895,-66750752.56106692,141549763.86671123
0.7651105179570915,0.04139867155309215,-0.0018375474368820491,-0.09925189085960132,-0.0008796699764516229,0.0011441788360997407,-0.0023292465661374218,-110054268.9694325,216875154.596557,-188131453.41879177
0.6150944402191388,0.002132691543945925,-0.009214431342489417,-0.06855067451739354,-0.008160982958669332,0.0018749493934598904,-0.002815519523039517,-2079889775.2623436,-458700702.9953154,-227407346.09165332
0.9894259561242831,0.09283559327581509,0.009708297070011734,-0.14932913225015892,0.0009285028738751921,-0.0013829809314678254,-0.0017456811677997452,94927161.109962,-278466376.67621773,-140997325.0915179
0.3629146602562193,0.02136556748666424,-0.0038348260850437836,-0.026458833668366315,-0.008136563607968298,0.0031033839765656213,-0.004654476177907707,-1924157038.1686647,-108473197.59010863,-375938460.52331483
0.5758049637174225,0.09205942005655068,0.007791546493555419,-0.061084852819733915,0.008126891312312451,-0.0020663367559844437,-0.000999457444602725,2047065014.0055966,400466633.74225223,-80725408.98714317
0.8681394583941422,0.0666990205821828,0.0037106716787330195,-0.12187924712056047,0.0009433579025557165,-0.0006389212443078662,-0.0016560447808333656,189272256.31595144,-66326682.79278114,-133757463.0673103
0.5713380457368673,0.04901127434562853,-0.0001823089559265634,-0.06016712808578694,-0.00019104550801201072,0.0020880958982065767,-0.002062636055483985,198973753.6716322,567142750.0607886,-166597527.5583219
0.12321379876864344,0.07536625865822466,0.0013042202576426997,-0.0034670130447340495,0.010072215317118608,-0.004202786971470387,-0.0019468536888988183,2338153985.4111557,32192077.25447201,-157245874.87259686
0.062196176065448625,0.033459874476265854,-0.0004323558912459935,-0.0009423144998759837,-0.007025867250828244,0.005178257130116205,-0.006888197924896453,-1358792858.9892905,612642617.9325052,-556354447.7800982
0.19519486333793268,0.01870805256845806,-0.0024723536525859315,-0.008203829850577105,-0.011741126493107318,0.003918711554903365,0.006373817686842906,-2844359166.399738,-314693020.1826277,514808351.62961936
0.23997419896325123,0.05084056000257539,7.976594241052933e-05,-0.012070920334703042,0.0002961518381386101,-0.003701954977103121,0.003922661166561592,-364786237.2136941,-1010634261.2142814,316830324.9915132
0.15141444486982203,0.059114129007709015,0.0005703832081346841,-0.004931579620556399,0.0034197341596631167,-0.004159115622839951,-0.010174919249134773,462839686.98377156,-761436047.1128777,-821820400.8916547
0.17349281449320342,0.040413691640608734,-0.0006793470060147465,-0.006539847130425173,-0.003596901704368939,0.004037880375288759,-0.001888248538870485,-527611705.57508117,705699245.7542392,-152512381.98569304
0.1311007600976761,0.03756206879349101,-0.0006784548340283243,-0.0038336819643621897,-0.004938746501776003,0.00419221522353495,0.0011675036891400786,-888242647.4584048,586758862.0149028,94298374.89208327
0.18937486962523054,0.012780115009569227,-0.002859437300597687,-0.007804511349715096,-0.013965362133104633,0.003950669910096211,0.004222635004865305,-3469261594.6736917,-575133341.5412478,341058981.1621977
0.5341012230852953,0.05913226316095749,0.0016148703805125406,-0.053405424193039654,0.001972169614082815,-0.0022694834192312774,0.0006500762411887628,282560534.343468,-402629571.0380392,52506157.94216931
0.7116272573090068,0.09036463641378566,0.008367277698714178,-0.08796405933407207,0.005046672144628311,-0.001404712629570204,-0.002835174208797142,1256469056.9181516,214322285.70146853,-228994839.94130763
0.6145568187928733,0.02027050339009564,-0.005720187231261322,-0.06841161401569901,-0.005068635111392378,0.0018775682872309574,-0.002995533555654767,-1205389537.0752485,-83310526.52840209,-241946941.03365427
0.07987603328416279,0.004570030206210019,-0.0015287102359269839,-0.0016630849786063388,-0.019297612737116478,0.00473660743617473,0.0013434808186347305,-4881428468.994451,-998977517.924332,108511912.27434362
0.6569542101128523,0.0026712970381249533,-0.009441041118952009,-0.07678094464330644,-0.0069932700551805956,0.0016710436269311568,-0.0037957819644698354,-1774490287.720932,-374870385.2259566,-306582389.4379483
0.5324969638700059,0.09721442629286185,0.008332633087183766,-0.0532095082054551,0.010196252001473644,-0.0022772980761875394,0.000489131967569334,2606498587.34002,591540497.8716754,39506812.76521544
0.25984806628185275,0.07002135798953954,0.002035665245734677,-0.014116010337059226,0.006599470196626857,-0.0036060485916454,-0.006256845551015647,1428732803.1355534,-219851001.12381122,-505360602.1974177
0.8851012970708706,0.005943805920272294,-0.009832531971429567,-0.1256931968435021,-0.0025078076304633507,0.0005892715324714581,-0.0006057126263597223,-637545413.7161744,-137248010.4728591,-48922942.89828527
0.2647230980001216,0.08213296511100199,0.003318744025229384,-0.014685566265024892,0.010591716390571257,-0.0035822081938912953,-0.004590700781218746,2560198448.4592752,270564477.12301683,-370787370.79074484
0.4984330690308307,0.013829994122028389,-0.0061160934822962025,-0.04720523289486069,-0.008633365478601633,0.002443229925005362,0.0044095209943156854,-2144579307.844427,-355283127.2617589,356153618.77165157
0.8099476075503718,0.06180672425808943,0.0025738383910662924,-0.10898334633612339,0.0009400461507438687,-0.0009258043688156192,-0.002501746657001591,153579055.62300903,-147827566.76736978,-202064153.06551313
0.04697201499800316,0.07878602116110259,0.000566793354947093,-0.000569904207677317,0.012066617856849192,-0.005150878208614132,0.007557036181005467,2787091341.9502707,5803515.990810778,610375999.235057
0.6281991669779325,0.09328258527537672,0.00842857861093788,-0.07110192055570777,0.007379325225673028,-0.0018111120604498154,-0.0006036034072738339,1866655285.3184552,382046185.25245744,-48752582.89519428
0.09976325234845736,0.05019224420097578,8.092991509925915e-06,-0.0021137685149125803,8.166094228644733e-05,-0.004239816986770586,0.00866106095846398,-490585214.712383,-1188670110.9446728,699547231.2605523
0.7949553423489335,0.09692514334212156,0.010168146295530955,-0.10573564675515881,0.004800241344171702,-0.0009996899362716138,0.0009090943678418673,1235875022.323324,298963046.2517115,73426852.78722775
0.4234637986825125,0.09623166260872375,0.006962277203194087,-0.03521906768391078,0.012085915600790947,-0.0028084179294403655,-0.0015362687672777486,3076344738.002935,670337013.888646,-124083246.58781816
0.8729301038912531,0.014807828386309242,-0.007829899531489387,-0.1229638807383527,-0.002005671155143454,0.0006371472604129735,-0.001330063323008085,-489794966.15398157,-62878145.17948172,-107428191.47372994
0.07116583649395802,0.09686543207408807,0.0014036162204099333,-0.001388801975305933,0.01990736430221111,-0.004954191531961343,-0.0023205532767124094,5027439395.983593,1011341915.0788124,-187429303.11907923
0.18722445452471126,0.059585904752710306,0.000728707683806859,-0.007538885951029245,0.0035967502661409505,-0.003962478123814235,0.003264030767793122,536704167.92773634,-684401956.603486,263633254.32175216
0.3123574468660546,0.05785438117339244,0.0009323302376183771,-0.019939312688743122,0.0024103881527263657,-0.003349539283614922,-0.005201361447144642,275588622.2750686,-654861194.3646778,-420109963.03860575
0.42826038788512927,0.06652682495056544,0.0025095877903560347,-0.035866051400893884,0.0043204548620022765,-0.0027850533069064265,-0.0004270358204639946,883939435.3446726,-263873422.70981014,-34491354.729784176
0.11278401633742441,0.06749072887612517,0.0008268599793719136,-0.0028772454608494416,0.006945067842575151,-0.004216767137757524,-0.006098778211308636,1452439698.422737,-350625952.2463876,-492593624.7595437
0.14779616339986174,0.019765039734179403,-0.0018496692903423803,-0.004799088913475246,-0.012005437380616933,0.004169836567418659,0.007820625793308056,-2888653060.0063725,-275724191.47754604,631665929.4594969
0.29022975198600387,0.034221576466101626,-0.0017622785704862396,-0.017380482313104538,-0.005200907746422804,0.003457472846195929,0.003736862233345309,-1051370479.6419398,347291000.7041633,301823488.07789034
0.8042743987685483,0.013074381145110987,-0.008032980956766135,-0.1077563630129956,-0.002938007103374528,0.000953385916269367,-0.00282736640200576,-715045637.4443952,-86435995.80961214,-228364209.3927729
0.8372002641327297,0.0370885737810723,-0.002842590573787115,-0.11499334487160862,-0.0010262324851795129,0.0007906183821976276,-0.0003248448388765979,-194321571.62103432,99169722.33988835,-26237467.755417522
0.11403899058152613,0.08497965280161551,0.0016710654942699342,-0.003017944457130478,0.0138894189909115,-0.004215084959942758,-0.005577021559322035,3415758152.2838397,491184437.14584416,-450451741.3298567
0.24078633540483535,0.0034783799266075335,-0.004428036114289572,-0.012313735801598308,-0.01639081476121926,0.003698087302971033,0.0044263476014870795,-4185519749.63857,-940389416.1924453,357512690.88934106
0.06636222656108354,0.08130088710891561,0.0008735909272972423,-0.0011548097601079654,0.013295901372988625,-0.00507418757211163,-0.004749825349025159,3143891701.512106,176415794.995911,-383639739.72895515
0.15520774171929785,0.05622369032342729,0.0003983510192523082,-0.005195607910581306,0.002335205742664841,-0.004138286128161514,-0.008767499040068696,158775419.41837737,-886942498.1766492,-708144153.2363179
0.9698677773143197,0.017628927959100232,-0.007310134713617577,-0.14482816191548614,-0.00022482740423061934,-3.80437274920542e-05,-0.0010119700799669784,-68166121.64211626,-37993373.86127113,-81736044.9204098
0.7904236052037581,0.09124789097926754,0.008918829960865628,-0.10475199151396405,0.0042195200324346704,-0.0010216681563836039,0.00041801304196215083,1069046828.6840951,222393352.02883548,33762591.85078911
0.09955312529670139,0.00583653878156239,-0.0018552273951798594,-0.002293403344298305,-0.018759628843965644,0.004245066042062283,0.009670221853931078,-4788896691.178896,-1072753671.1282307,781056380.509818
0.6304913272651809,0.07207195545740935,0.004306779472513527,-0.0715114870046929,0.0037630869472634887,-0.0017999462847837489,-0.00031613200538099795,845725317.8968397,-52918511.89540634,-25533738.89615753
0.32764271912226683,0.01144078114156108,-0.004757927975437529,-0.021933770725413342,-0.011833228138906424,0.0032751330435098203,-0.0003610815055835742,-2948367605.1502414,-507786183.3753098,-29164275.450980995
0.8151594742270812,0.030295815213741577,-0.004303592133450354,-0.11013964649901348,-0.0015670053361935756,0.0008995760354668647,-0.002045936779626556,-333993258.0500829,64454501.98737278,-165248739.89291415
0.9389918807542791,0.040010379508594505,-0.002255377187620313,-0.13783031975111068,-0.0004363489807143741,0.0002802309311575879,-0.0011105106167974832,-89401445.19631723,26353771.336845875,-89695088.27979672
0.677354810266813,0.06044675765566002,0.0021153901279698534,-0.08086988777913517,0.0015436058446988143,-0.001571674167282655,-0.0009610287362345482,245951128.13830468,-257286412.25870192,-77621551.77279043
0.2584711702021276,0.08567403957725989,0.0036109558734833754,-0.014023949564058127,0.011758930693233069,-0.003612782035057438,-0.006634153706518403,2886456814.8012357,403333989.46199983,-535835491.6803326
0.9499602531073641,0.09221613057167242,0.009531646183050888,-0.14031149592423645,0.0014829281903438463,-4.46847801434066e-05,5.2821802041996824e-05,413798659.2913669,167030410.2126568,4266376.318776667
0.5789826226678509,0.019894112522773268,-0.0055956285390842,-0.06165217801985036,-0.005817181418572489,0.0020508577818453833,-0.00044368498636460085,-1396003131.2959554,-125012183.53614515,-35836095.05252545
0.48964764330622434,0.07889641046514412,0.0048255844743512605,-0.04574033639865582,0.006897241693147316,-0.002486025598331637,0.0022771094312207807,1648605608.0726197,132847045.60294278,183920377.13706306
0.634444948638641,0.07429935495350685,0.004757778928019546,-0.072288151602745,0.004142840277938986,-0.0017806870516612894,0.00036877829297080056,955411993.4660956,-1465498.2385642778,29785939.047641587
0.29896830616732684,0.05353697738857683,0.0004052299303278532,-0.018282027810741085,0.001165863817742127,-0.003414738640653588,0.006557413213534674,-84127986.83285259,-824071460.8813912,529637221.09318525
0.5481450142680941,0.04571218551021913,-0.0007712242807106762,-0.0558690141585956,-0.0009259804711856449,0.0022010733720641967,0.003659322957289185,4900948.414912651,510040415.40142554,295560700.3964342
0.3308981457923604,0.09358639658826863,0.005421789808873172,-0.02235302725324805,0.01337599126360145,-0.0032592861515234606,0.0006624301006880329,3386414785.0066056,699177664.1018127,53503969.67095651
0.23759949272352743,0.018782683425164395,-0.002936285754003059,-0.011967681847271438,-0.010998698078726462,0.0037132641481036413,0.0032306530560246155,-2659371108.158193,-282823363.82409966,260937362.2173728
0.6274852697603008,0.0809555746726065,0.0060243263296408545,-0.0709401013217858,0.005277671103062473,-0.0018145896602601574,-0.0007853654566136736,1272112506.8342185,126439614.29748583,-63433363.8034121
0.4148481647145859,0.023027299055054157,-0.004001214790387401,-0.033853461170652764,-0.0070512235284271516,0.0028503854667094597,-0.003882386358049328,-1647991488.992491,-48500805.16273064,-313577359.6885996
0.06342683118148881,0.06966361396249088,0.0005242825504666147,-0.0009990388014016391,0.008352653743392991,-0.005147514887765683,-0.00628741780846763,1737589735.287561,-443206735.89960945,-507829899.9146932
0.9183338298537032,0.016158730648762942,-0.007601927983245997,-0.13316667770938656,-0.0011106142575920978,0.00041291297622447765,-0.001541301858063282,-263936112.2382621,-17827866.775584515,-124489765.4589574
0.3042065153243207,0.09850973045934891,0.005636856844258684,-0.01906717519661796,0.014886886313482062,-0.0033892167037614107,-0.0075048526398720505,3797791607.2017193,845498042.877774,-606161174.7588965
0.9675206560921523,0.010876039502202773,-0.00883307393020415,-0.14429615779225058,-0.00029058953237123635,-8.796297753743687e-06,-0.0009506796099765236,-83213130.80203383,-37692685.20997733,-76785660.80579613
0.7837117822672028,0.05857130816786688,0.0018474548650219552,-0.10326908610957451,0.0008770601908606734,-0.0010542194534086669,-0.00042700995599020963,120215427.8687942,-191760514.66702232,-34489265.67613232
0.11883517895191062,0.08356777438289752,0.0016675439787119976,-0.0032678767054897546,0.013328802479563688,-0.004208656109542037,-0.0036744849204143823,3258055056.912911,425080977.134294,-296785320.4950078
0.9869769988759445,0.02966857209960564,-0.004595529190300855,-0.148708770953088,-0.00010758089175095765,-0.00025124138885568303,-0.0009953799058685098,-60851151.12557462,-84057846.81172256,-80396069.32014887
0.3288621919705458,0.006966144034348477,-0.0053261706211902675,-0.02209931362987792,-0.01320642508884637,0.0032691968463633703,3.493767016053695e-05,-3337279012.9606233,-675832392.6575112,2821888.7437356766
0.9169725081842972,0.0034485650221701414,-0.010453822606981961,-0.13286427246984311,-0.0014699195364740517,0.0004216564411310131,-0.0014981506785897714,-364449646.28929186,-58887372.983858325,-121004477.88609692
0.3903167615258484,0.0217184444162848,-0.004007778840328456,-0.030255115948539277,-0.008036292524114867,0.002969886870219235,0.0031301975106460544,-1911984861.963603,-134063575.1865558,252823645.09064287
0.624752340478681,0.0512739032227949,0.00024732328718596384,-0.07035183893413992,0.0002171897602095338,-0.001827902549171534,-0.0013958954718824856,-160059549.70577917,-490420615.06733626,-112745403.49820077
0.764278068222345,0.0953830006580694,0.009691562756543017,-0.09911435556173276,0.004642496881687025,-0.0011484699430537315,-0.002236337042260922,1173256606.145399,237792734.45650774,-180627222.6441514
0.7501747940269767,0.06766602410966593,0.0037471011802685306,-0.09603732782629304,0.0018073509431537627,-0.0012168686287323816,-0.0038133719791305087,363495894.29512125,-125031882.70187125,-308003121.39131033
0.5603139313179164,0.0716741909635201,0.003950287882670917,-0.05815598109333181,0.00418797490223162,-0.002141796376614935,-0.004091997513703816,924421420.9640523,-98080093.31116037,-330507491.49146205
0.9236811850963069,0.004276655563303045,-0.01027762212122571,-0.13438009401494894,-0.0014465101402818497,0.00037856810832281873,-0.001313820883387884,-363052307.3021045,-68231974.8351965,-106116302.11979063
0.6191440030080559,0.04872509006259955,-0.00024629970419267136,-0.06925517553139596,-0.00021736194855208527,0.0018552229200620163,-0.00235206603952956,163320841.3975971,498123012.4814135,-189974564.73123372
0.26585063463809583,0.026191736811459677,-0.0024678040842771825,-0.01477742132249283,-0.007847715595929611,0.0035766941944985198,-0.0042597507964733106,-1785158573.746627,60323007.784070954,-344056795.0997674
0.3505703774517936,0.05263080965956879,0.00034309947890246405,-0.02466592374233275,0.0007475527976825297,-0.00316352265053621,-0.008288826789492665,-171945511.0085565,-803734621.8746606,-669482163.7667153
0.133830602784212,0.02264170071660576,-0.0015219745715035484,-0.004041895049540065,-0.010863197636090931,0.004188556119910567,0.002271445474665394,-2563482724.9057713,-132045579.70552942,183462903.72297415
0.999214642336424,0.09506864448009372,0.010224156133984755,-0.15156962737263027,0.0009721930633839471,-0.0017153403130330674,-0.0016299828702198427,67011424.2237634,-367128582.73590815,-131652462.59467961
0.18004039153555765,0.033720441869043306,-0.0011936679244937446,-0.007042999585288787,-0.006108291971460458,0.004001926763807069,0.0006052370345293878,-1241918334.0093114,391270846.30313516,48884529.711989015
0.7700690254622415,0.0005407438844779345,-0.01059135160634239,-0.10036851867749005,-0.0050597326289168265,0.00112006631466266,-0.001623268917101961,-1294647151.2058191,-296371937.24297893,-131110181.76592763
0.5610434383410662,0.06686952258974498,0.003076978044177978,-0.058281650948267955,0.003259597447355267,-0.0021382428159612,-0.003974443624972124,662406783.3762858,-209552028.39022028,-321012754.32467157
0.6933756561102241,0.08033474783339135,0.00621436884634764,-0.08415909121619326,0.004482251980585425,-0.0014936398777743998,0.0015030791580063763,1086137940.0889812,120801562.9693173,121402547.37743808
0.1685752526496973,0.020962221477855963,-0.0020042238725622875,-0.006261139684567073,-0.010895334381255768,0.004064883357737831,-0.0036265680931683586,-2587550966.3598356,-170900408.5224081,-292915115.21744436
0.9020261818610734,0.048684656517236295,-0.00029555461560972944,-0.12946304391679894,-0.00019113474737909858,0.0005176533554749341,-0.002211211574943195,8683372.173448758,123179911.86525404,-178597857.97618112
0.950633480073188,0.06877066827399156,0.0042338405828978055,-0.14046366557364048,0.0004576667677308327,-6.584367011397418e-05,-0.0016875788655116852,121401660.84471545,36834590.11593895,-136304446.82978997
0.8028886919267518,0.09071263207515229,0.008852329265929538,-0.10745465316012151,0.003237485257712308,-0.0009608730959644873,-0.002919183982747736,798798707.3806665,120602357.94056876,-235780244.7603941
0.010617483503178206,0.0029204810951614204,-0.00020953546002801018,-0.00015011934846925884,-0.01973494566441177,0.0011642967500790002,-0.009688210972017944,-5437858302.718371,-2061826835.7621698,-782509347.739911
0.10463281040052871,0.01026729144785789,-0.0017497321701963814,-0.0025362236974016852,-0.015776721394414654,0.004227693081341327,-0.009305575464142589,-3947756501.643174,-716274163.2518232,-751604172.1038245
0.13453979958507445,0.008154903668286957,-0.002339675890889926,-0.004140402596235192,-0.01661549012399981,0.004187605506676616,0.002572465448791257,-4189726733.283356,-829226669.866395,207776055.47929385
0.46479846569795924,0.05397296214360188,0.0006399042318184333,-0.0415822306461918,0.0009483004875016111,-0.002607071212768264,-0.0037755116099937314,-47779451.426276475,-622108726.0852562,-304945168.4994937
0.15108940404227353,0.09243751788934897,0.0026506620675274765,-0.005046585856228459,0.015923082661520024,-0.004160900465011941,-0.010113895460530181,3997223888.3609447,752888152.5365505,-816891556.4274378
0.22709758753917433,0.04342565132483349,-0.0005940543015696026,-0.010921067383207788,-0.0023163194046188908,0.0037632778464626038,-0.0005868081904631117,-198870092.59967867,783218694.1134858,-47396046.152789794
0.7380379452402254,0.024590540423126646,-0.005351087760439155,-0.09349458629097736,-0.003176857259758358,0.0012759675540270354,0.00039398397690171283,-743484733.2322603,-24182263.313081406,31821782.74975373
0.016030566211479958,0.07769040667995786,0.00018607246677161283,-0.00019257041902532549,0.011607354619723969,-0.0017578869923712739,-0.005292957447096415,3068335093.4231405,909334525.3154476,-427508101.4962489
0.8450750578702331,0.03690015953821121,-0.002892272614436462,-0.1167298123514462,-0.0010412321802626826,0.0007516896936476669,0.00030300046305356543,-203278230.38232946,86347610.7878039,24473114.32355721
0.8592667599145538,0.06742863539122276,0.0038640634118072867,-0.11989339345551447,0.0009851027855916766,-0.0006819177681869348,-0.002160160214389084,195864019.39653763,-73423916.21385345,-174474478.85450295
0.8108460730927698,0.004271908026605736,-0.00997183236661858,-0.10921268802890081,-0.003638773726696348,0.0009208991399116684,-0.0022606794814142295,-917082869.2498616,-180520329.2593359,-182593342.72961086
0.32359776946267027,0.0160018559484144,-0.0041529214195444655,-0.021418164779787714,-0.010433504795280777,0.003294823206075159,-0.0016246165973944904,-2550291044.083729,-332638059.2493087,-131219032.86647807
0.773075925819853,0.04023367845659323,-0.002094387956689932,-0.10097342825423797,-0.00099885722874089,0.0011054441830529171,-0.0015086623115194708,-148440440.5626482,191485172.11173603,-121853494.39195727
0.5162482814197862,0.039065025509763165,-0.0018914869485169104,-0.05026431827068167,-0.0023614764388218998,0.002356448542536249,-0.0031965973100996636,-382078419.85968375,380047923.2827864,-258186705.81574208
0.053379818128583056,0.05914668913547391,0.0002048385656509094,-0.0006112142628223262,0.003885304471131648,-0.0053984931725419225,-0.010817876163499298,444297475.7427137,-1055392912.8507091,-873751536.2826357
0.6869101596061198,0.051316648274913,0.00026847019141733547,-0.08280003289039745,0.0001945423942353421,-0.0015251319994103452,0.0004063971897859675,-129779969.2504932,-407573525.14710414,32824388.405789685
0.04657336641425623,0.011239930285332938,-0.0007567041207702138,-0.000616006557916778,-0.016247571928547228,0.0051071630240937405,0.00629619069985218,-3974311159.574109,-524700128.7628759,508538479.6034453
0.8447038632353379,0.0331802009094985,-0.0037131194914492866,-0.11665077047979584,-0.001337378821331047,0.0007535246776255999,0.00029183903298177216,-286774292.39471364,50987042.0521293,23571614.202373907
0.007480597156915253,0.046346802784628265,-1.1455480346660447e-05,-7.014420711186838e-05,-0.0015313590755345933,0.0008203106655018135,-0.00624107819278587,-333519638.80186725,46365473.211706154,-504087084.80193573
0.41357455765852413,0.005404254996095253,-0.006600624212854721,-0.03370992748275696,-0.011658252804492179,0.0028565893225814265,-0.004129490209884623,-2949611605.649462,-604906338.9683415,-333535747.7214503
0.9856987288541706,0.065322388052493,0.003468245467742696,-0.14844291151912636,0.000390200327163831,-0.0012564288157296266,-0.0008844378419965437,-41914552.495929465,-307908490.96333414,-71435364.16125931
0.3040405529482509,0.008126081793807333,-0.004863639188694098,-0.01902414918916798,-0.012850458123203156,0.0033900245818400676,-0.007588085991104276,-3222011145.1056533,-598548554.2909786,-612883868.5122685
0.5423480340963946,0.03923239541823793,-0.0019232265758958415,-0.05486200350790906,-0.002325331855465588,0.0022293115865129054,0.002438992979503729,-387263755.3906315,348486339.0828174,196995586.80607045
0.29004347767846217,0.038672616359515126,-0.0012644502467731248,-0.017344980172941886,-0.003733749268165468,0.0034583837845938367,0.003653695267430021,-636505699.9825232,525300408.5401337,295106156.2155017
0.37913972876939217,0.04693952063436316,-0.0004239804391662694,-0.028629928032100564,-0.0008696447892900503,0.003024338954599276,-0.00016866294914957836,120568404.06560957,749596547.30927,-13622776.66208133
0.9690051156688588,0.0004910230335687604,-0.011176538637281836,-0.14463218302681266,-0.00039172266793414425,-2.7294118300380532e-05,-0.0008068159143050924,-114043772.38315995,-55174545.13462889,-65165900.77079593
0.8428353298180042,0.07836412959740419,0.006257465932175797,-0.11624760648813326,0.0022560273258452612,-0.0007624180046426066,0.0001944239957651639,545391697.32071,57796682.39574672,15703476.58103247
0.4774416824323817,0.06974356531556353,0.0032395747460842598,-0.043706485855582664,0.0047125625525738304,-0.0025454834225322465,-0.0006808988589614984,1023810076.1708107,-148643504.4232479,-54995677.06996718
0.1374462683227338,0.030863361028414055,-0.0010920679151023326,-0.004200428976365531,-0.007598611634643364,0.0041837096520383355,0.003696102396497515,-1641196542.719537,262101511.2828911,298531347.4094147
0.3393523096029316,0.0807717728172981,0.003907591736852366,-0.023357816354934575,0.00944338134344716,-0.003218132645598268,0.003194502750323458,2279682116.95008,234360626.41197252,258017529.83381778
0.9407610213896346,0.07198404551961252,0.004953249647850945,-0.138230631055226,0.0006984535995705199,-0.00012567339259089705,-0.0004819874106378741,182221645.00699982,49093438.58092478,-38929752.39767445
0.20278066639085635,0.04004948767430897,-0.0008138714238916264,-0.008722631660871722,-0.003505832429144022,0.0038790834205925107,-0.009138233390443937,-521105983.82085204,671841961.1365877,-738088081.5358565
0.7615888637390238,0.04570187954411566,-0.0009166807328406279,-0.09848633936228303,-0.0004394205552142306,0.0011613041430063031,-0.002710463254356754,16475652.678663837,275054257.775827,-218922032.0826609
0.8148774142966906,0.006638730938680349,-0.009469611934190861,-0.110098778458223,-0.00345035048725377,0.0009009703860429763,-0.001951443894620708,-866231514.0492244,-163325834.51667306,-157616622.25782642
0.6853416803861636,0.0019496683863669544,-0.009786538381716711,-0.0825524828182571,-0.007099897532255652,0.0015327774418521511,0.00040225080907899113,-1821384535.3940294,-426875501.1150766,32489488.425610825
0.18246067322084286,0.04353270832703925,-0.0004800750505178133,-0.007179859769353709,-0.0024266079880826486,0.003988636676981648,0.0014594762657821336,-202744737.68904907,833564015.8982605,117880775.31317234
0.03158501597918114,0.0014758754429225474,-0.0006424550223973197,-0.0004515803039231354,-0.020340500154275232,0.0034635637950128206,-0.001057385811321544,-5330478853.062791,-1485206984.331644,-85404238.60674009
0.2803555617377684,0.05136500720576779,0.00014801373121876987,-0.01626401098711365,0.0004499357324994546,-0.003505760659819765,0.00041163074239213004,-297543017.09851027,-936540126.6269996,33247098.423979737
0.6257552752402017,0.06356647243081125,0.00263619691551092,-0.07057036431994818,0.002312971907723657,-0.001823016963892976,-0.0011650226678429076,432993849.4425387,-235127429.8186098,-94097984.7103887
0.5162625945992063,0.07532792509970904,0.004381198684503693,-0.050300755103310085,0.0054697245623476914,-0.002356378829189487,-0.0031233954531501296,1260764700.8195634,-3452000.890288613,-252274248.13904893
0.30957383485644174,0.027163242222795623,-0.0026912590771211416,-0.019644801059621037,-0.007008247903637639,0.0033630894579298465,-0.005982677145097967,-1573726549.9714472,101643331.51253106,-483216230.95022047
0.6346909238629541,0.09037918796823943,0.007907880598461942,-0.07236483637273888,0.006884319817082679,-0.0017794888352059557,0.0004890445666541621,1730552339.4099588,331014018.65564096,39499753.46052848
0.9401886924652461,0.07419849971515433,0.005452425008668216,-0.13810151603853096,0.0007843163786347557,-0.0001307120878716317,-0.000484683059371549,205883934.85268515,58071644.10934567,-39147477.87231742
0.5086236428205706,0.09677019430072947,0.008013104732621568,-0.04900684153196524,0.010100317311793394,-0.0023935896409388313,-0.004668625642090279,2565289418.1816974,547042910.4326453,-377081301.861138
0.9564911759615389,0.015471850507421525,-0.0077935371504958524,-0.14179680540604298,-0.0002458338231418491,0.00012864182948302272,-0.0011153570786207323,-53909878.35465651,6582342.453976627,-90086533.273213
0.16586984953797967,0.02112584409362594,-0.001963620256426422,-0.006063930504378704,-0.010833941147961771,0.004079739084024203,-0.0046425673435248616,-2568395743.1862607,-159262782.63468027,-374976593.13085425
0.46763171126255193,0.03081921720802415,-0.0031023196167643276,-0.042088701624583454,-0.004578232820170835,0.0025932698724323577,-0.0030251678761005762,-980046581.926681,178426929.95537308,-244340482.30043116
0.812018564219667,0.0022918895177616028,-0.010408063658824336,-0.10947283418076159,-0.003796403391209668,0.0009151029827769719,-0.0021575490988362533,-962345789.6016767,-201256298.4192196,-174263581.05985123
0.6848480995649495,0.004946744455080521,-0.009172830175667742,-0.0824475513938739,-0.006657051119449889,0.0015351815143711534,0.00031472177367208864,-1695903998.372598,-372543342.13996816,25419835.565822545
0.6489496957914758,0.03710113637210354,-0.0025574771705062357,-0.07510331614024765,-0.002199150516905906,0.0017100316398037142,0.002786182911777818,-414506024.37987345,216977247.08860368,225037850.56666994
0.23924273011694905,0.08468719484260027,0.00328274321274287,-0.012129792655214477,0.012221229276935516,-0.0037054384842949775,0.003826134430249248,3005919383.074879,433149975.4914919,309033934.7509008
0.31663918573221317,0.05458532844854577,0.0005503124751283649,-0.02045895256131117,0.0014071664112997994,-0.0033286964693821364,-0.003903275206587009,-5489259.826930932,-770513263.6293974,-315264535.9166431
0.9579896746431867,0.001560129547671585,-0.010931130021415447,-0.14213791036647147,-0.0003813113128488016,0.00010996906793536709,-0.0009274104721226639,-94470599.4400879,-15109922.544183725,-74906230.4406767
0.6416008495555539,0.006667328562050873,-0.008537341899253531,-0.07371985678287815,-0.007387864616718066,0.0017458297808223278,0.0016815160197244106,-1876978504.7418249,-401535563.6006845,135814755.43927932
0.8755498177266887,0.03761711201506537,-0.0027570520803629098,-0.12353591355572958,-0.0007135519925622664,0.0006268425429525326,-0.0012713805606397455,-125771274.42431462,90753996.69730675,-102688429.8978256
0.97247340672066,0.04571734836487038,-0.0009725545863033873,-0.14542067476337805,4.870803379443243e-05,-7.051242244759948e-05,-0.0013366047305528872,5226535.29535154,-14032153.789899768,-107956535.92927167
0.18460717581643088,0.05399261676292455,0.0002995925058433934,-0.007326223128415847,0.001498079291950987,-0.0039768499473464905,0.002251281875113448,-58315174.550064966,-942726820.8981191,181834305.29762465
0.16456071071610595,0.08686777025842526,0.002489125577717301,-0.00600149256880095,0.01383324432172258,-0.004086927738434082,-0.005089878460712474,3415404745.715139,520607720.6129088,-411105567.98062295
0.17656666197089632,0.01640189265689724,-0.002419726596601716,-0.006860035252144476,-0.012606426273320946,0.004021001472260671,-0.0006030509056353245,-3076579941.203378,-390610843.84019417,-48707957.76285313
0.578399890886675,0.025864246358233353,-0.004483272424283654,-0.061531349229042714,-0.004663607984221849,0.0020536963737089464,-0.0005853643820649679,-1069552888.7249004,15550122.94084349,-47279430.85909356
0.8062060867818678,0.03063966805704275,-0.004214705604245299,-0.10816547590970269,-0.0015396311434325391,0.0009438367034835249,-0.0027604175433618705,-320892434.16369456,80283141.10736193,-222956801.579228
0.06107527015652607,0.010392933937547245,-0.001016463228474646,-0.0010253856392653583,-0.016824176331085253,0.005206257794685415,-0.0067881120077938825,-4125307076.1622133,-566544640.4607978,-548270585.2448906
0.7663220820810647,0.0566182559427938,0.0014147195813725612,-0.09951129082221243,0.0006772841411898413,-0.0011385567938444474,-0.002215259585410023,53522482.197512455,-239805668.846488,-178924812.66773266
0.0632948643653262,0.07389972690759572,0.0006358884880394485,-0.0010165099151161034,0.010152057694053229,-0.005150811470042772,-0.006237654550316024,2245867996.948327,-226133944.94410393,-503810559.8332174
0.022695910233275145,0.0501373721930441,1.306924066292713e-06,-0.00020406526781261707,5.758412211097834e-05,-0.002488798265312,0.0005224660781765582,-285248893.7775811,-696587587.1305238,42199183.237337396
0.6548961396873294,0.020864792264509248,-0.005802976737028314,-0.07633200812135676,-0.004305008592113481,0.0016810678222412,-0.004188496018274035,-1013324981.2297808,-46343406.60325547,-338301601.47597975
0.7045744622065221,0.05498976073153513,0.001029938714775902,-0.08643116601625402,0.0006238505038284568,-0.0014390819848510983,-0.003889352639409843,2007421.186853783,-331235519.2921513,-314140020.87541044
0.6639105329137178,0.04175655612921072,-0.0016528599651167038,-0.07813099469216143,-0.0012180523479098987,0.0016371616287613744,-0.0029582909522551937,-145985601.02074713,315241272.1338431,-238938884.6052272
0.3826776009414926,0.07725218547587095,0.0038027507326889344,-0.029193387269854747,0.007743793786626915,-0.003007103207103734,0.0009544912560772723,1824788816.5127332,88105455.987013,77093524.52931815
0.8870959715639812,0.07418739505587149,0.00540071467053156,-0.12612718145195545,0.0013718049579886926,-0.0005470592055999424,-0.0005351604350053996,321520382.44527197,11550017.557877138,-43224496.67351305
0.6001712434021945,0.0581191071190886,0.001542266489261697,-0.06555853518693437,0.0013842408362849008,-0.0019476441820385215,-0.005553425783836358,155349652.81817994,-382877927.0648345,-448545928.69447505
0.09309348891129528,0.07903163480169391,0.0011399065710448065,-0.0020178344431607403,0.012331974863102214,-0.004406430265613501,0.006548317075036614,2952298457.9661055,248402244.8658745,528902532.9837265
0.11125483294964947,0.09284529057065473,0.001999460813837623,-0.0029025946623680346,0.01701263863018347,-0.004218816867767303,-0.006671987705181161,4298216184.553135,868519527.191856,-538891314.6492476
0.1363097436646529,0.06816912740445119,0.001028655677538197,-0.004135722531861496,0.007214440482040067,-0.004185233059052626,0.003243524122250381,1532409746.4222584,-309075979.4465611,261976948.3356077
0.7593372665043961,0.013305162070186371,-0.007817654524046546,-0.09803800313829183,-0.0037538399715289564,0.0011722533422420245,-0.002783277339429069,-919158683.1798251,-123405147.87835895,-224803169.7231171
0.5099209671034193,0.01979414992740524,-0.005183609833858036,-0.049195624352640674,-0.006523143103893481,0.002387270117435447,-0.004469148421018171,-1554815420.9113624,-115440977.46592033,-360969680.15915996
0.2250571085300711,0.057101499716856935,0.0006365819832409561,-0.01073748246184353,0.002502048858191998,-0.0037729953119969295,-0.0013032132088900694,250197072.1123407,-763463909.2258706,-105259528.41035177
0.15235101574274962,0.032187259345159126,-0.0011210220103807583,-0.0050358557143566265,-0.006683561055921503,0.004153972788311269,-0.009775741023240914,-1386121518.3785596,364557025.6898112,-789579082.6463815
0.7380243334350242,0.022049653776965963,-0.0058861364309756425,-0.09349496734276763,-0.0034945350395471494,0.0012760339040523427,0.0004046675603234795,-833281759.3425641,-62651391.530338526,32684687.56458873
0.2631911021586626,0.04739928606394371,-0.0002672925891550353,-0.01441429442430807,-0.0008572512473883811,0.0035897001226264658,-0.005240101310017065,192567642.9987987,910921325.8473508,-423238951.9629168
0.564241291042693,0.011631759691617023,-0.007022022815577572,-0.05892327921503253,-0.007413666689077147,0.0021226654734061157,-0.0032518173600945555,-1838617458.5956833,-298133032.348387,-262646786.77686796
0.46099951836611247,0.02722654565808257,-0.0036473509992490075,-0.04100537323423606,-0.005435762305741733,0.002625576690884701,-0.0045906955739380695,-1218549475.8044205,83666823.65061899,-370786950.20269024
0.12569163628397623,0.06600810733104857,0.0008388157472949309,-0.003559937186842088,0.006356361260456944,-0.004199465657653369,-0.00097551907173965,1288113017.0288625,-417059023.5889572,-78791925.02512558
0.9492530301471512,0.07005010996037639,0.004522210392048373,-0.14015058917233622,0.000623467590836882,-5.091106164098469e-05,-0.00016974612681705525,170081421.0954608,61143331.07980541,-13710264.089069849
0.29769585583615155,0.07244189024768036,0.002561744675346202,-0.018209260698905532,0.0073973296877721945,-0.003420961312375733,0.006230437029784097,1676705579.6593103,-70864504.97997022,503227606.2517925
0.5778447720917376,0.030453134196925503,-0.003628779183616512,-0.061418473082753285,-0.003776924494399896,0.0020564004577238726,-0.000714979985774189,-818566676.6157322,123739661.80426116,-57748383.466376804
0.03136157348537358,0.022180686157517213,-0.00036571955017871685,-0.0003771805644688941,-0.011661390342843648,0.00343906143818864,0.0011194082229413014,-2879929826.5233307,-440626077.2796533,90413741.0837205
0.3978447973632873,0.032977262781496944,-0.002448705441137991,-0.031265325061058016,-0.0048370640520160055,0.002933211909022654,0.005214461926111358,-1012030894.9575492,243167529.5179265,421168078.6474559
0.7162866560094838,0.08413314231618371,0.007095421289468266,-0.08893451501527605,0.00426756588862473,-0.001382006663070312,-0.002282989666877483,1038972626.6430879,126349368.29235026,-184395319.2477967
0.9620757544645925,0.06149815920365698,0.002593933344320855,-0.14306551310731136,0.0003153783603363977,-0.0004543480268783817,-0.0012167814258513543,34109025.530985415,-90231390.86524817,-98278499.7803017
0.1282178971923251,0.059862712625103974,0.0005266938945014334,-0.0036689896773494926,0.003916200907251565,-0.004196079436721525,1.9349494322973282e-05,598708709.331777,-711736577.0023376,1562843.7722401498
0.3273030486085132,0.06728161110927494,0.0021306240557976337,-0.0218220130206417,0.005303459274284494,-0.0032767865047898526,-0.0005688970977534569,1102251852.919346,-283787849.8542023,-45949380.97239459
0.001318055740442564,0.03211310192422453,-9.88263436965092e-06,-1.44164517940488e-05,-0.007497888037976775,0.0001445359453170691,-0.01038515785055024,-2102084186.5915587,-867538773.90563,-838801211.005981
0.9411282294260807,0.04534431771239147,-0.001055208682176228,-0.1383122064171134,-0.0002855632073295997,0.00026650964098795527,-0.0010843765993826804,-48437854.029249944,40743144.54512431,-87584263.79629342
0.9966006580467732,0.027750934111669536,-0.005029731040124777,-0.1508905811024084,-0.00012625556050862202,-0.00037116160974912105,-0.0008777655016688757,-80659132.32492703,-120220878.74069996,-70896444.36556304
0.3608180626184671,0.0332180403629987,-0.0022375023991123323,-0.0261313873783531,-0.004768646348736981,0.0031135981464592843,-0.005307973640268054,-970835250.0719255,302450399.1520865,-428720947.8678044
0.6203355253554592,0.09987623853879485,0.009645716814863852,-0.06957805231204219,0.008503488983673979,-0.001849418133007097,-0.0019121701639360222,2179806804.270438,507414116.1911873,-154444513.2409864
0.9374306951613522,0.021041108960680906,-0.006524229507837669,-0.13748263721892184,-0.0009725936878757888,0.00029025807738769505,-0.0010328085834797607,-239778871.61983877,-35779740.30804523,-83419154.81951913
0.909691075004036,0.03851843225306077,-0.002577223856127921,-0.13120226918626215,-0.00047852502628887374,0.0004684234594725112,-0.001929236354818481,-78524040.22633891,74444561.31973097,-155822936.35072348
0.5844956577040135,0.022398400626643174,-0.005159571846213387,-0.06267423523242092,-0.0053332927306127785,0.0020240027914346093,0.0006093671269447876,-1262465106.8071115,-73978907.09176432,49218114.09938669
0.19423697123129469,0.09419803627025304,0.0034761688502044606,-0.008184896056791196,0.01658365097702219,-0.003923971467146188,0.006085273737488225,4212666329.2154846,899896549.7729007,491502878.79712594
0.6309323206954529,0.07315877800940782,0.004520586399842529,-0.07159962893100126,0.003948381271293724,-0.0017977980782463154,-0.00023565201840808347,898366861.4435761,-29862110.405199483,-19033432.25603751
0.3532829282025046,0.013831044741051436,-0.004744886106110136,-0.025147822902693833,-0.010277521824855479,0.0031503076903939276,-0.007354656418741418,-2523704468.767188,-354593547.0730534,-594029941.5137299
0.13392499507104177,0.03450166311440618,-0.000862771710428492,-0.003997257179739122,-0.00615394600647234,0.004188429595711736,0.0022930287589114987,-1232228843.118451,438462600.3112842,185206168.98900568
0.10288510954066768,0.03203820876355244,-0.0007785289451929579,-0.0023509040680523754,-0.007132113223798472,0.004230035713970744,-0.010028719372358122,-1503708449.842728,331715609.3353762,-810011949.3058484
0.5415241004381389,0.03188492867659337,-0.0032323511992909367,-0.05473325767599871,-0.003912063464039589,0.0022333251271229038,0.0022968502642212174,-835334319.6251473,157382298.94725528,185514829.03325218
0.21232374206874105,0.06087369445217432,0.0009259406771468706,-0.00959392405955034,0.003831094257993075,-0.00383363599938763,-0.005771555310372975,618561130.6991564,-619587603.185419,-466164082.7608942
0.08815911696497927,0.05309950698663466,0.00011520335305066797,-0.001738937084417213,0.001316599719867268,-0.004529692791601385,0.0038045140456509294,-176597090.4815363,-1120998188.488011,307287672.9179597
0.6756634406080217,0.019273851432858247,-0.0062141361471357345,-0.08055781242183542,-0.00454008518814574,0.0015799170171479915,-0.0011121813962663984,-1092034135.7251928,-103418394.87005162,-89830035.85228604
0.46870828529757425,0.04286060183794152,-0.0011565682132729956,-0.04223492122566469,-0.0017040924419828023,0.0025880256519395517,-0.0028268581426911243,-168184563.2678465,525157590.3657645,-228323157.6788985
0.4485142274020865,0.09777325981103355,0.007507287527344226,-0.039034173349305853,0.012488921087214666,-0.002686395011357711,0.005019942187655474,3205054834.817346,753657618.8941162,405456869.00294214
0.4328362818337701,0.014576311777083361,-0.005421439388864815,-0.03661505960682222,-0.009260486903756,0.0027627637112530024,0.0008612461168515939,-2283148963.544602,-340931556.5046859,69562186.36109029
0.48745483895862357,0.06711524539226771,0.002849219158409816,-0.045349726016471165,0.004085212737588564,-0.0024967072133846024,0.0016963236343894295,852372534.581325,-210860688.26818648,137010755.0853001
0.06506540310656643,0.09643274175535231,0.0012703348686518789,-0.0011897284974742,0.019723567345181124,-0.005106582725234099,-0.00492268670897144,4957018630.868994,945994388.7249966,-397601618.80153936
0.5563965826575891,0.06307109719211554,0.0023724140702385396,-0.05740739417167939,0.0025256503299149677,-0.0021608784904565415,-0.004890830690702119,452183179.9975733,-304871475.6009011,-395028632.7105558
0.783316682441794,0.018919158517625642,-0.006697862118699832,-0.10320751612731162,-0.003179487374124964,0.0010556448304623878,-0.0003573090562857262,-770921191.6869986,-86784450.94596483,-28859577.623077884
0.8728406442789998,0.037616702447287,-0.0027552100647421076,-0.12292931771802937,-0.0007135751940964924,0.000637499152293497,-0.0014248504475805612,-124486744.11095013,93763727.2289712,-115084074.6122761
0.9827516683659602,0.01025190344931002,-0.008978398983657947,-0.1477466644860557,-0.00029666760034902475,-0.00019858963144148145,-0.0007945770263270424,-107925546.21561532,-92082182.0074737,-64177375.20333804
0.5690699663375032,0.008388380001623086,-0.0076544392787306174,-0.05982951698076045,-0.00804036564608655,0.002099144123026586,-0.0023030020781689975,-2018630135.0462458,-380709326.18950856,-186011706.3136498
0.0584048165343655,0.02337006269258629,-0.000653214689575431,-0.0008702966544142645,-0.011311788665164349,0.005272966762428872,-0.00824663337770673,-2558915437.9733467,120160438.79171203,-666074234.353236
0.149036357310309,0.048238378859023934,-0.00010863733234201321,-0.004746578716182138,-0.0006994893365299362,0.0041681742012848865,0.008274905401810306,307250081.17509085,1093564960.360562,668357743.992371
0.2520688578419592,0.05129591577661765,0.0001284388470157289,-0.01320815125076503,0.00042716171148865154,-0.0036440913027777355,-0.008912613107599568,-320740347.08877987,-978404295.5471963,-719864904.8445805
0.7465746717247452,0.0431507864642443,-0.0014497161086200585,-0.09526609892568381,-0.0008563374665652767,0.001234355731762407,0.0013708287801592889,-92533070.16166161,245194292.64511806,110720786.08978872
0.6679647669579071,0.056254693244790446,0.0012578502841778566,-0.07895266985264927,0.0009241871014120662,-0.0016174111630216093,-0.0023689186760709746,65305001.225408345,-345260872.2600315,-191335739.2211172
0.10674722645874607,0.07991714606228219,0.0013425962526574166,-0.002607543946778045,0.011879242456407282,-0.004224858900639547,-0.008479158223975408,2846312558.368421,244880800.69162565,-684855087.3210907
0.7576941350457123,0.05356095670345836,0.000758047453824756,-0.09764426318419404,0.00036455560436166566,-0.0011804009946405625,-0.0031126323692347024,-39953055.42536651,-289522967.5718803,-251404922.13049522
0.36620849873118977,0.03598770632975747,-0.0018896915836307366,-0.026870143972480748,-0.003981637096821492,0.0030873371084493284,-0.0037897575629847746,-751535414.2316378,390375803.54287934,-306095803.1641549
0.8911106455009266,0.06310445120062987,0.002928845742363282,-0.12701996254872266,0.0007376947546339843,-0.0005276043549485854,-0.0003591682514641481,144619335.71045157,-59775135.83750199,-29009743.387488887
0.7654067600185332,0.06399627671050892,0.002990530903304898,-0.099322037406467,0.0014319756053714147,-0.0011429959634430276,-0.0022731048472070525,266330131.3320908,-149626814.39947295,-183596929.96672347
0.8331177651684696,0.0853612460500196,0.007773765020652413,-0.11411138675087923,0.002812157549327149,-0.0008106949130823882,-0.0005431655116076017,696756500.436347,111526487.27788329,-43871060.55292168
0.3689599094876391,0.03683305016899757,-0.0017859831067444892,-0.02724902663159017,-0.0037414299994615575,0.0030739328307722857,-0.003012053918421548,-685254695.3503749,415688531.0720151,-243281278.0263558
0.42512824423079243,0.09186973692591852,0.00632360950531918,-0.035460067870766235,0.010945617746780142,-0.002800310263696759,-0.001122395511914287,2754973581.084202,534477517.853318,-90655022.11615396
0.12992193060798132,0.06663826936237928,0.0008997836607006024,-0.003788371714155877,0.006606580567519697,-0.0041937953362940275,0.0007050544053856314,1359535071.6132147,-385141035.92592525,56946701.97345485
0.8742842591236567,0.052838274444891586,0.0006315125720006645,-0.12324645445560134,0.00015031584923801133,-0.0006091439367721385,-0.001371638525853064,-31306996.497417416,-153988961.92982623,-110786188.62659363
0.06613277242861716,0.037583679862468466,-0.00034532263834891107,-0.0010513838730061172,-0.005274168984080717,0.0050799194253793025,-0.00531903603071688,-875515224.7326334,797068287.5647542,-429614448.63482493
0.2328571617436903,0.005169961562247267,-0.004141787523985882,-0.011587796376786438,-0.015794825171873254,0.003735848765559359,0.0016246311133971958,-4012463130.836786,-857508110.1745946,131220205.31285043
0.9941372327535487,0.09702171497446377,0.01066225710984475,-0.15041209379248083,0.0010104053622598252,-0.0015429448891383646,-0.0017956370469211225,98700115.83937949,-313764155.5403281,-145032223.02055222
0.19475976935546893,0.03862221081958367,-0.0008970932645873405,-0.00809414118600091,-0.004269087511137543,0.003921100713503944,0.006101213755604129,-731781767.6662892,591248637.8527203,492790341.79879504
0.9921065614043747,0.050017482679596256,-4.319144634612541e-07,-0.14987852307990468,9.075613400151081e-05,-0.001473996650411591,-0.00023941314917308443,-152924302.45713103,-405692059.9392475,-19337215.894749127
0.5627682559803294,0.04951798957546398,-8.807868915138965e-05,-0.05856820774310103,-9.313593947818922e-05,0.0021298408935175317,-0.003720993835103298,231709602.2852128,590805859.9229832,-300541809.7583433
0.66213255209787,0.0818791783487296,0.006383591216305077,-0.07780813921243043,0.00471045677782661,-0.0016458186982610812,-0.003105874110384599,1132212631.44243,105429669.92057213,-250859062.76183298
0.15305043979568916,0.028838946791578435,-0.0013372971205256347,-0.005100606398996855,-0.007939889423341178,0.004150132158335068,-0.009494922423206154,-1741741190.8770075,211262295.3937708,-766897580.3358817
0.6473315525051335,0.06932140113658457,0.0038255529702221507,-0.07479802621276481,0.003294140013241506,-0.0017179126773405745,0.0025415894209770418,723096313.9885484,-86542966.79778764,205282222.4635303
0.9613820449502675,0.02451235408667019,-0.005755721872527186,-0.142904514243061,-0.00015779405191966727,6.769681064122679e-05,-0.0011803815164444509,-36405435.69575731,20011.333310192975,-95338507.09743643
0.5546174628768432,0.05412232969287234,0.0007467888433789985,-0.05705636645346837,0.0007965332818844484,-0.0021695449046925663,-0.005278190475119904,-37674877.997341864,-516810585.0597826,-426315384.52891535
0.6572273979261783,0.08530966246769357,0.007044930734860057,-0.07681640816841673,0.005217344543273217,-0.0016697107089862495,-0.003813949686560958,1272611294.6058252,160086984.62544993,-308049782.3760774
0.5537348451311428,0.0862548121777808,0.006561629676970643,-0.05696166646771243,0.0070053015021891984,-0.0021738442953680437,-0.005292210311666989,1716975250.410818,234190160.0361866,-427447755.94233376
0.25087693671132216,0.009144498631126258,-0.004033157315444363,-0.013223785561184935,-0.013466851938463554,0.0036499201620521227,-0.009112037461120576,-3364773586.047805,-599756554.426042,-735972256.4751234
0.3709333556762332,0.024815756210336215,-0.003430147656023373,-0.027559476519236965,-0.007156181685031242,0.003064318628083429,-0.0023927473530942767,-1651743527.1737242,-739630.4398157446,-193260363.13453776
0.45509625030307055,0.02879652001562713,-0.003366030437653617,-0.04002865026125839,-0.005061027436586609,0.002654332761850453,-0.006007385619260702,-1109130902.2724094,137196514.3981928,-485211915.40182596
0.8916103977353689,0.009267627263548224,-0.00910583880734048,-0.1271479292215362,-0.002319517050165243,0.0005636678034081632,-0.000250054052791604,-587419105.3068777,-121673859.72963521,-20196673.494706478
0.31254886687573624,0.044498956669585074,-0.0006533076361310348,-0.019955149854096653,-0.001688185151511903,0.0033486074818790956,-0.005154073274608234,-71540280.60358989,742095452.4826484,-416290533.7183574
0.23263506425828337,0.0900657060570162,0.0036984820252270213,-0.01154983404799524,0.014116223064072689,-0.0037369064704662266,0.001523690815481149,3537807082.2679095,653840003.6116232,123067335.09655435
0.12153010153118407,0.09172276231625923,0.0021173052962649586,-0.003445946719785273,0.016566914787729696,-0.004205043813117072,-0.0025934772813254875,4173882141.480557,818411905.9591562,-209473165.03013554
0.5314862422649578,0.0555488856476731,0.0009780833389239514,-0.052936535492400884,0.0011983167267796552,-0.0022822214966339294,6.789937886417241e-05,62255008.74744569,-499985781.1885949,5484180.600567772
0.10988048468283769,0.04337695961384224,-0.0003054630816028906,-0.002676406560396894,-0.0026298197823395346,0.004220659055505095,-0.0072662546698719355,-232080745.2059434,874535067.061266,-586889800.2588872
0.42360821395899073,0.09707384746210884,0.0070908835809968245,-0.03524340244013878,0.01230608019111884,-0.0028077144694855227,-0.0014944132592974724,3138668800.994003,697209663.5117598,-120702609.40479586
0.4726927871717129,0.09668725248660819,0.007607643601404343,-0.04299324943933945,0.011143711596476952,-0.002568616298548543,-0.0016831572661062388,2839043803.602988,623975451.3296387,-135947317.64704236
0.20934042669592529,0.018202265280363526,-0.002674287778868128,-0.009403176310469928,-0.011203194961691271,0.0038478435772073827,-0.006723009843986785,-2700875988.4702916,-269554378.3405093,-543012333.5527788
0.5922431512538063,0.002355613827800712,-0.008977497269177157,-0.0641575647558675,-0.009206041154470553,0.00198626334961588,0.002204001240510095,-2361833574.3872514,-553845923.7271355,178015484.81043077
0.10361141161502557,0.0898905432140986,0.0017405044893133218,-0.0024824065599402577,0.015839393021364875,-0.0042290621726876615,-0.009710932125998342,3965307417.8102193,723480040.3094248,-784344517.8690969
0.14694297053012925,0.03176892858639038,-0.001109136992769902,-0.004703498072512938,-0.00723903667520499,0.004170980194169531,0.007465757212078664,-1541089690.4277945,302066880.778859,603003467.1294305
0.5895456433848661,0.055468917507216095,0.0010276421711387488,-0.06357090049375565,0.0010567264254261431,-0.0019994034200931654,0.0014773332967512598,56493017.44571849,-437189496.0612467,119323073.96837099
0.8747732204641255,0.0725189199822055,0.005012414746376796,-0.12336789389953262,0.0012763432212810621,-0.0006067744616906623,-0.0012482914842995019,287299350.84962386,-16896582.553500865,-100823542.96265209
0.053770766531211746,0.08864400273120532,0.0008718433980344692,-0.0007831516920152994,0.016415089041526092,-0.005388727129737852,-0.009914955878331803,3987554384.482405,465399464.5089991,-800823359.4037225
0.20610422789270705,0.05735072065002508,0.0006098370390991947,-0.009014799930490319,0.002589856078657098,-0.0038632554732335733,-0.007979634619584314,264084132.20938128,-778341580.0191116,-644508950.0433484
0.8951214731501689,0.026818987581837175,-0.00518700949428766,-0.12792403250253911,-0.0013252530756475693,0.000549856890306899,-0.00012019451447309315,-308021573.13626546,-5119194.020543695,-9708018.476672908
0.6744569693092737,0.09065951076917023,0.008215836887576367,-0.0803282228028438,0.006007837242546388,-0.0015857889626212929,-0.0012420530460221513,1506244942.3253415,279582247.64440835,-100319669.10178915
0.09441855364166718,0.02326667978629567,-0.0010647119191569657,-0.0020511339396698178,-0.011355703360645982,0.004373329634460873,0.007053761494109738,-2680324282.7767773,-139480491.2595164,569726889.9088634
0.1850962164052232,0.06153238970047823,0.0008674677816418469,-0.007391782416209498,0.004327095542307329,-0.003974164560795947,0.002476177855317438,741751302.6712167,-599221483.214697,199998980.6217931
0.07384690834730946,0.049498987568707645,-1.557586725449686e-05,-0.0012487284543087154,-0.00021281862874723278,0.004887217316682004,-0.0023398964311955282,531942985.6252365,1355794946.0407286,-188991634.82733113
0.4911280376517384,0.024475448712417885,-0.0042715167165795365,-0.04597582707515148,-0.006092417587410866,0.002478814282432823,0.002614037536456282,-1421961702.9925566,-37378093.24857606,211133801.02146894
0.09011146486829988,0.07546820314169314,0.0009677304895176378,-0.0019043071602030477,0.010818310546308498,-0.004480922383373432,0.005192605518574325,2515372192.6054287,43957642.4260402,419402753.42331094
0.0823541397344468,0.06071982091223664,0.00037200417174127864,-0.0015808838721472517,0.004553534891495465,-0.004674703375424886,0.0015290508063029173,720890993.0732028,-769824419.2754691,123500257.43215871
0.36559805546592716,0.09775286632475816,0.0064316467619584365,-0.026889775302685784,0.013569126405175644,-0.003090311055898909,-0.0037988401601058153,3461484586.6138234,770344689.0556267,-306829397.54700816
0.33629295318215446,0.07028735464645859,0.0025571677196267587,-0.022945196920783485,0.006225875496799364,-0.00323302509923544,0.002204597105986056,1368313686.1109111,-159662564.01778784,178063612.40656605
0.3563036864337925,0.06737088915993031,0.0022937401721946854,-0.02550737981328684,0.004935992515679423,-0.0031355912101150296,-0.006587878623371818,1015478179.9377466,-288393037.3059725,-532097888.81080073
0.2835058229100742,0.031666212202855495,-0.002007050889350229,-0.016663537975465097,-0.006043210766309268,0.0034903549181300175,0.0015330071107134968,-1285499274.6255217,254538259.0146706,123819805.09609014
0.0025417161318206927,0.03577742471997699,-1.515336922277791e-05,-2.677911650049255e-05,-0.005961865305518278,0.0002787206432688471,-0.009470395966414183,-1651605383.4331722,-643510730.1675596,-764916597.2872994
0.901413623814323,0.09272852680085375,0.009574479908975388,-0.1293439154866543,0.0015027957334648734,-0.0004720817917736042,-0.001825003887165777,367634269.1107679,48615591.95686,-147404160.11723584
0.1629736936572168,0.09448223563135658,0.002976728039737098,-0.005917453597420508,0.016690286099533394,-0.004095642258993518,-0.005643534893500807,4222012681.3746486,864285792.689532,-455823972.1673729
0.3211079650344272,0.07529170675851214,0.0030700928302341878,-0.02108119497365184,0.0077616337922859005,-0.0033069431724728204,-0.002431080616393716,1793505283.8466146,5504389.539436791,-196356511.32410783
0.24460787734401612,0.0165737063071048,-0.0032265986826065093,-0.012612374256225621,-0.011776979976406888,0.00367988780083715,0.005710414879523423,-2883429086.690523,-386550445.7511017,461225817.19227654
0.9064718124584111,0.05847510600831501,0.0018993792715910215,-0.1304720110753532,0.0001746608333955263,-0.0004275502817132626,-0.0019304405653624845,-2424086.997679188,-99704344.0537143,-155920199.51004684
0.6215994838295744,0.0731124754599268,0.004474772233339065,-0.06977557737143668,0.003940487066677531,-0.0018432610257351767,-0.0018270496493947852,890627219.5774633,-43670549.19689718,-147569394.7588096
0.32799360350423784,0.0479997628098458,-0.0002470301510574679,-0.021857520927011646,-0.0006138418698213406,0.003273424994929802,-0.0004313637399136483,223059653.49392396,851002762.4152623,-34840917.4545639
0.8102476648474239,0.07396712491156007,0.0052253172742579655,-0.10906074802524257,0.0019065537655365977,-0.000924313682704403,-0.0024174851988384427,426983926.0067355,-30310046.40142611,-195258419.90618193
0.23033333772773523,0.043400467535603546,-0.0006038536355542968,-0.011215441028193024,-0.002325192329155963,0.003747868086894729,0.0005533533385184419,-203245351.75299746,777787484.6859605,44693923.49572031
0.9876566364150019,0.08219153290314185,0.007293490558828311,-0.14891077065942238,0.0007202492458645016,-0.0013229064749347152,-0.0014188960775717296,43333713.886912815,-286714517.9344991,-114603144.7269474
0.16019998745094882,0.09716654902676598,0.0031072733012393215,-0.005727219986617157,0.017697473753532734,-0.004110873046605387,-0.006669523918159295,4504891615.063793,982004824.2722505,-538692316.4667124
0.6780451611187197,0.0646095159291609,0.0029598077977059547,-0.08101687061200528,0.0021586943179800755,-0.0015683116083541337,-0.0008387466577197689,420239295.03223205,-181815508.4525248,-67744922.35428903
0.20995591203570735,0.07745051761597142,0.0023146260824577856,-0.009442363775000958,0.009671553755720139,-0.0038449124235181986,-0.006526860796263023,2268247921.940796,84818769.90998751,-527169525.85201347
0.5014835067671557,0.029239767426265384,-0.003524824760218495,-0.047687030558165575,-0.004483302656165713,0.002428370622754805,-0.0063372824293542185,-973188733.1207827,143312335.0125317,-511857426.9863023
0.9818310807098691,0.029410129529819903,-0.004653316832897165,-0.14754169465682074,-0.00011009770118736414,-0.00018711820741068586,-0.001042272314717596,-53793863.7334918,-66235637.815720685,-84183533.11180584
0.2949131436554222,0.00822543673388172,-0.004730254426799084,-0.017975350668013878,-0.013769794506239892,0.003434569626957658,0.005407737937075691,-3476503665.2287145,-697337151.4044952,436778833.37919044
0.011028538046922743,0.03479386218061542,-7.029764672986383e-05,-0.00011738441436107601,-0.0063741582457049915,0.0012093723529036913,-0.006020718328446372,-1655405392.0878868,-430373526.15879196,-486288788.0668224
0.20603255650828492,0.07803043556749001,0.002324778164668146,-0.009088180034066971,0.00987587440717319,-0.0038635967971112906,-0.007906402428721662,2323744114.6854763,104291073.9933679,-638594042.3198266
0.8678172474247825,0.0057116189152506495,-0.009840777707276602,-0.12182552651369848,-0.002520960751945576,0.0006572588239701638,-0.0015839204507878124,-633026778.1266911,-119622077.4018408,-127932036.40978485
0.4763354899494776,0.08352918320683345,0.005492701331598801,-0.043559391101210584,0.008003031401853322,-0.0025508719207307795,-0.0008777816464068944,1953347471.2815368,248486165.3256437,-70897748.36363378
0.7491739030048608,0.05843661344849114,0.0017884488414809789,-0.09581463308744834,0.0010548008462731018,-0.0012217420502829944,0.0017035875883027185,150165336.98907176,-217583900.14691296,137597459.0552196
0.4422267339414496,0.05437543390101133,0.0006803819514533845,-0.03795978064372803,0.0011438291822768228,-0.0027170219642167204,0.003164866214423745,-5825949.90569311,-629501904.3392655,255623809.62653327
0.5237591802495126,0.00919102378157785,-0.00712516220841918,-0.05165683554863646,-0.008812954816809944,0.0023198614979753063,-0.0014290494602462733,-2210294391.7281103,-411916371.64741623,-115423225.63527593
0.6749822706814288,0.009544000119198882,-0.00817785464681454,-0.08043469790314622,-0.005977762995648695,0.001583234775519693,-0.0011654397546065065,-1498052633.6588798,-276660686.00860167,-94131672.4874486
0.6411120826697487,0.021052899313338834,-0.0057007048290010735,-0.0735992334802394,-0.004935243036897306,0.001748210691422114,0.0015281094268389805,-1183352793.9698284,-103717960.93361446,123424222.93699458
0.3590162958838374,0.0015862799190573098,-0.0064301098945399315,-0.02598036423286553,-0.01375691006809408,0.0031223759640077176,-0.005665848206050067,-3510684796.687199,-784030899.1938318,-457626201.25789005
0.6051416692495684,0.05261544978051354,0.0004990346223289145,-0.06651971032413193,0.00044591243633586297,-0.001923431800257891,-0.0047328188827428785,-106975144.75937551,-489715367.5937512,-382266140.5292325
0.3008394370848749,0.0036936258929466787,-0.005332977074226723,-0.018643145697034378,-0.014210710313038676,0.0034056070975805874,-0.008548882479605696,-3604656093.9790545,-758943281.4944042,-690486661.8143063
0.3175222279923243,0.03029546662487055,-0.0023701977426319166,-0.020618640713671935,-0.006047016659091832,0.003324397962077119,-0.003558685337735512,-1306681494.7608476,207162405.58182898,-287432277.2786375
0.9298803291813897,0.005428855991729043,-0.010027502145937495,-0.13578071926101812,-0.0014139384407127061,0.0003387523910112211,-0.0011459768214703847,-358668365.675117,-75541385.16586727,-92559666.34953108
0.4081886543062976,0.06539369713622292,0.0022567497495564162,-0.03280633354643663,0.004024231746576824,-0.0028828245478574877,-0.005679722899714301,788354077.3687912,-327401170.1936745,-458746849.592309
0.805027332219124,0.0961326753127609,0.010038675948368407,-0.10793105970208763,0.0036682698355345322,-0.000950248320590541,-0.0027222782321408012,921865426.2045618,175797108.6766654,-219876318.74983397
0.7310447966864151,0.07080104953310187,0.004362395948038211,-0.09201858768264798,0.002600691663883603,-0.001310087973696028,-0.0005027900062085366,576473331.2462305,-55267994.824325256,-40609962.03992027
0.39004828154088855,0.06782488794351058,0.002524604766957387,-0.030186841252056378,0.005064997690788754,-0.0029711948465613452,0.003002965461288115,1071864202.3318887,-226289976.77851197,242547210.3348093
0.36124414016042156,0.047991072085043565,-0.0002680892394425756,-0.026144490365332604,-0.0005708431538281636,0.003111522388897059,-0.005258873386349644,215599936.32264355,810443600.916718,-424755158.1282405
0.7656128846886692,0.015549639561506986,-0.0073615961232278235,-0.09938989727434319,-0.0035242136279742035,0.001141735897660423,-0.0021521506115241285,-857942387.9992331,-104212080.01210117,-173827549.39233345
0.9027394108975146,0.0689022054389537,0.004235913199314718,-0.12963246603636375,0.0005789589834752085,-0.00046040976746120066,-0.001983361345051615,107886836.96307692,-60011192.034343,-160194570.17724586
0.04118657483756319,0.005577023905867157,-0.0007669503428087647,-0.0005703339714288079,-0.01862136741968858,0.004516455826458891,0.0034171523905990077,-4716931333.898675,-979282963.3671604,276000770.0099199
0.983505185133125,0.011122235586565233,-0.008782138149706117,-0.14791755107713772,-0.0002881919837442894,-0.00020797918852788477,-0.0007980841920824377,-106667135.55320631,-93709684.01824863,-64460646.28358152
0.7398277091959986,0.07585493166087195,0.005450687506617807,-0.09387136089542839,0.0032325643931485626,-0.0012672874901918374,0.0006199412936266635,760284334.4437556,33385184.05799876,50072181.40830744
0.6278396968849902,0.008389884435568378,-0.008100342232022979,-0.07102867070599513,-0.007094182997762643,0.0018128639339479724,-0.0006730384269458822,-1785835524.677666,-347004866.47825885,-54360796.02255203
0.7488470140058487,0.04922565775696621,-0.000164119057246568,-0.09573652030139974,-9.681849011247471e-05,0.0012232793193579852,0.0016253197993364443,120835152.06349862,334081721.2856498,131275829.94640513
0.011723193013129636,0.09427313723666396,0.00021756555139138085,-0.00016214510905298866,0.01855855748068924,-0.0012855471375727429,-0.008916972613014034,5090612461.527376,1885026330.8850558,-720217018.7434412
0.9108051989091633,0.044337618248388666,-0.0012723760254555313,-0.1314516236289067,-0.0003140217217416254,0.00046126769057242,-0.0019351163766999635,-32887170.365300905,92351888.54696797,-156297861.19499707
0.6010057809575866,0.05100153265264417,0.00019038882251190623,-0.06570786089647083,0.00017075281372823208,-0.0019435789082526966,-0.005445815744542032,-187201553.08051878,-528747446.6312841,-439854348.5976257
0.5006691958098681,0.03507040594274853,-0.0025322306774486435,-0.04752942826511268,-0.0032241396333737107,0.0024323372893225725,-0.006541540167844639,-616752455.535795,296986124.2843739,-528355167.40283626
0.018482257371885087,0.02132590004185149,-0.0002221512326144986,-0.00022401554120196577,-0.012019702363437027,0.002026735637099701,-0.004373119859604256,-3152330581.3230033,-883290596.6209165,-353213527.1218822
0.5541135759488425,0.06250124187600803,0.0022634702021418914,-0.05698062319513346,0.0024155405810500213,-0.002171999429055438,-0.005334738348525825,419708656.5074241,-321355498.97115,-430882712.7655474
0.9242814369591386,0.007589645811256323,-0.009534046248211827,-0.1345145103868381,-0.0013528548001434401,0.00037471282472933964,-0.0013181308836981986,-337043745.50603324,-57975129.18043038,-106464417.52946989
0.19766337620793234,0.09542087604957683,0.0036307394366796326,-0.008438307057249786,0.01704247561749095,-0.0039051566242642947,0.007377618124830926,4344652016.235613,960803731.028997,595884540.8517287
0.9654354201461811,0.04789594285214493,-0.0004814457878443651,-0.14382310516372476,6.992399356525556e-05,1.718778489268047e-05,-0.001432290671251557,21849341.350637376,13330415.334298324,-115685015.75493346
0.17954600122998288,0.04285365976652783,-0.0005226662759169655,-0.00697047330736963,-0.002681395423775798,0.004004641526360007,0.00036958395727273996,-272832136.79684967,807219985.9173957,29851011.93356746
0.29690760935321464,0.010181181143421359,-0.004534977479588133,-0.018183706165473167,-0.01312513908627692,0.0034248160790239304,0.006055592537454829,-3295446216.7388453,-621991920.805631,489105551.1021208
0.18315006414231044,0.08182044884445178,0.0023703021608452194,-0.007331056516697819,0.011939426773214905,-0.003984851140257685,0.0018573618225648514,2892404065.050686,320020709.7974217,150017685.66869953
0.5989409812888744,0.09229874983191116,0.008024976364320056,-0.0653944125157099,0.00817313557943769,-0.0019536370298585716,0.0034721432590153756,2073791917.8774047,437928650.22185475,280442340.1512419
0.7719196214855331,0.013822270607106665,-0.007754053554416578,-0.10075305835003004,-0.003700936013697742,0.0011110671276626238,-0.0014985256955074577,-911616086.4823514,-134292502.1087539,-121034767.7140639
0.5151246635376477,0.010438910195915085,-0.0068335151417309396,-0.0501339803619429,-0.008543465904894732,0.002361921903109243,-0.003299806293390495,-2129016169.4685447,-367376600.4832873,-266522816.00461692
0.9319135283978373,0.06422695863683398,0.0031995803971503582,-0.136228619859153,0.00039768195184848587,-0.0002035653517279412,-0.0008933304269232445,87758903.39012909,-9365661.033755284,-72153611.40533899
0.3039078095984391,0.04113040796564575,-0.0010298383191543767,-0.018895817029616895,-0.0027219406707064465,0.0033906707550577786,-0.0077894826097388015,-358678886.58693767,628742959.1134372,-629150518.4789032
0.6075367814364111,0.08690418830063068,0.007056484818174857,-0.06705359158405319,0.006291860897978729,-0.0019117645161139674,-0.004157441553099495,1547043052.8609486,221842024.43058988,-335793356.2118823
0.8427116262358836,0.024183172333531545,-0.0056952492225091945,-0.11621840554362359,-0.002053634043043206,0.0007633732115999159,0.00017771305800134973,-488060946.1472242,-33005928.089489117,14353746.99241671
0.14459883742978952,0.0042116793975637504,-0.0027430382402664866,-0.004693414393510968,-0.018181231624689466,0.004174122289487244,0.006571907012111036,-4633983354.983952,-1022733876.540022,530807874.0551222
0.3243014931998572,0.08869902047770031,0.004735497644341464,-0.02152074136500561,0.011876131094511952,-0.0032913975924221683,-0.0013857715538098947,2958525428.0205007,508386178.59268117,-111927702.42310688
0.46464102032387944,0.0017701185953711285,-0.007766322232246098,-0.04167169218946951,-0.011511919421722808,0.0026078381623948488,-0.003597507174011527,-2938381443.7738023,-657497526.3394117,-290567887.1317003
0.7576451037980781,0.09287694357348714,0.00912730000478583,-0.09768009092430655,0.004386154435652961,-0.0011806387885637815,-0.0029269713142318354,1096893189.1566675,197641976.01396284,-236409221.5341098
0.8535365036036576,0.07687577659884717,0.005949833477469744,-0.11861727269968847,0.0015256206038294917,-0.0007096862202389254,-0.0024422363709983297,345299994.01515955,-15788031.411277028,-197257553.0421728
0.3041655094635653,0.06933884969446057,0.0022469414040311103,-0.018963230291389487,0.00593479399099716,-0.003389416313678062,-0.007659435847408219,1267079786.3747396,-239138801.3035654,-618646741.5214331
0.0019100578150553719,0.08028794039664067,2.425047076114754e-05,-2.3489019597525146e-05,0.012696197240733538,-0.00020945397333242108,-0.0114968795377312,3563741142.4382453,1478982100.1660519,-928594116.5090585
0.3458577344415854,0.06867195935083967,0.002408358883461541,-0.024124578563500924,0.005730135654720442,-0.0031864652866920515,0.005132017118421456,1233812746.504434,-206561251.7237379,414509074.9494253
0.786435354751108,0.04620647072009863,-0.0008186992004569585,-0.10385230749415106,-0.00038779721429010893,0.0010404791676429381,-0.00017094057965641452,16430763.578575166,247152332.96775967,-13806739.12609502
0.6337911878880599,0.035726685551054384,-0.00279310363674212,-0.07214250211966286,-0.0024334830854490057,0.0017838726736389976,0.00020847720755956534,-471803913.69566727,209461247.38777938,16838543.687503356
0.12979188167951933,0.08893293434091074,0.0021034500086517353,-0.003874933617070524,0.015459153945106621,-0.004193969654949035,0.0006832996505558436,3862068349.3632383,687332998.5850172,55189587.160279684
0.3166676386779979,0.06354854028881152,0.0016261590159223455,-0.020492312998007387,0.004157837553071739,-0.0033285579650308983,-0.0038509119677771902,772121093.278075,-437219721.1846586,-311035197.39738846
0.47302377645251625,0.014593108366628589,-0.00577231674049783,-0.043018784205147834,-0.008451218862495162,0.002567003979100313,-0.0016591029523049805,-2078092157.8912866,-298225391.17201763,-134004469.22463305
0.5861035002951696,0.04131404519190205,-0.001626365563605068,-0.06293567259738769,-0.0016783352932273064,0.002016170699477071,0.0008278994583887922,-230185642.37953568,366619171.8265561,66868802.40832553
0.4283528142551246,0.018206589521498125,-0.004828577228836372,-0.03592263713662425,-0.008311456997639195,0.0027846030898365792,-0.00032850872311401824,-2012219584.6024177,-219779108.9332541,-26533396.866901476
0.30910461419837065,0.04332186554873069,-0.0007860410685214071,-0.019532317491260796,-0.002049416218575024,0.0033653735484165948,-0.006205331283124768,-171626251.11592895,703070557.3981017,-501199834.4062313
0.5923688887063517,0.06791721358136735,0.0033765253139723416,-0.06412195219839631,0.003462036537971419,-0.0019856508815006835,0.002083490077582184,738121856.8216453,-141889187.86230978,168281890.88163796
0.14090858955642058,0.017738276726553197,-0.0018854283273970027,-0.00444006631629811,-0.012810206963890196,0.004179068728135483,0.005088484036002788,-3115036718.883314,-370615260.94070446,410992941.369456
0.357546853974452,0.0017239240148725354,-0.006391671068120948,-0.025776442644366057,-0.01371779806752135,0.0031295347669371143,-0.006084065295352076,-3498760818.478077,-777268591.3732483,-491405273.85536
0.6075449317835304,0.03459035270248007,-0.002946514676483634,-0.06701409225991624,-0.0026272184967480686,0.0019117250122335783,-0.004260758370645046,-511081621.63702047,222132329.81386092,-344138176.0905614
0.35839919505117446,0.0895344332113068,0.005243867360312102,-0.025867155888664225,0.011233832917020709,-0.0031253823456910412,-0.005884457302549523,2797066059.660593,477500517.2225415,-475283089.82130766
0.561387315455023,0.03100191206117717,-0.0034664878105395013,-0.058350288211292484,-0.003670887413321344,0.0021365677044887788,-0.0038976295939433803,-778878239.1835471,159249126.001165,-314808544.12619615
0.9197739986444018,0.05809698896495232,0.0018166997215818587,-0.1334811210101265,0.00015999980305222983,-0.00031043989306622777,-0.0014179932928709282,7619726.510587378,-68374378.24700962,-114530227.50111344
0.8570408377459175,0.021523797551463483,-0.006309875565674521,-0.11940292949235273,-0.0016252193796803976,0.0006996481320968861,-0.0022565890643248543,-374671954.7902204,883566.3430331106,-182262962.8877767
0.9694079360227582,0.020908770765846837,-0.006570031090771802,-0.14472405080717893,-0.0001928870805728277,-3.2313654525495394e-05,-0.0010573182391310776,-58442617.46021515,-32503833.252569165,-85398780.85289474
0.9017717293519534,0.047211830648250276,-0.000625519523462375,-0.12940622952524414,-0.0002327702480599917,0.0005192876470858643,-0.0022089450936240707,-2888662.8815563996,118597612.4881588,-178414796.02348265
0.09804243611914654,0.0006699577385497703,-0.0020406107558158296,-0.002266678166787602,-0.020954274374119966,0.0042828036439362125,0.00915757882173885,-5404734045.05318,-1327975288.2902586,739650597.1404456
0.7426387290377813,0.04392315493192726,-0.0012832449376423782,-0.09443743825594275,-0.0007597710572123926,0.001253541276459269,0.0008749673680872871,-62910086.5255534,262317290.45217657,70670441.26858859
0.025577597330537345,0.09167127029292324,0.0004467868725981996,-0.0003464695819877446,0.017467898443485785,-0.0028047995966145505,-0.0028241217196669118,4598228262.703257,1323407810.0716643,-228102138.89617366
0.20242009138164652,0.04850919736734647,-0.00012174620511199279,-0.008657014076546723,-0.0005252497604080798,0.003880800603277945,-0.00930556169747597,321689852.3586977,1033436449.569517,-751603060.1807514
0.10863627779059212,0.06593565960655001,0.0007271001376972931,-0.002649302346994477,0.006327594342551673,-0.004222326800673103,-0.007747810905390805,1277211115.2167125,-427006915.6119051,-625784726.9738728
0.30556000094133806,0.013247554976505172,-0.00428591957066283,-0.019194838140725284,-0.011278757181836548,0.0033826281540694225,-0.007146721398270661,-2778599484.660767,-410221853.47595656,-577235189.8603227
0.7000251997479567,0.011050508768830649,-0.008017429860356298,-0.08552408077142402,-0.004869717978557485,0.0014612586737656752,-0.0042926106264447594,-1199594704.6167552,-176898476.1645525,-346710858.28976905
0.7514827084711575,0.07832279750286782,0.006011275618168344,-0.0963326345531724,0.002897423222532544,-0.0012105254471614924,-0.0036279028309384453,672419443.3482884,8827735.166944012,-293022920.9604129
0.16332368892957458,0.02854301869086009,-0.001438707799069007,-0.005848591356209599,-0.008050925314316018,0.004093720388664401,-0.005638647046306539,-1779964685.9973025,181862696.79184198,-455429184.5093743
0.3822081899404972,0.0905901979904746,0.005658513480410893,-0.029168473321172787,0.011533831782957638,-0.003009390075899371,0.0008860865611991231,2895926340.9867544,546636656.0944686,71568529.9430061
0.6399694602625807,0.012320132025475002,-0.007413154301895774,-0.07339127221445428,-0.006424108085915276,0.0017537767022968165,0.0013758412778319684,-1603569146.893935,-282526219.56736606,111125641.6710436
0.516984402900506,0.03278607527096003,-0.002980330455292626,-0.050408776131314656,-0.003717455194887984,0.0023528627520696954,-0.0030070412670282765,-765837615.9002746,214752206.30058128,-242876410.02920696
0.5921590674684987,0.0256258895381103,-0.0045923488606266225,-0.06409567597919694,-0.004709664254176311,0.001986672936936329,0.002074400510813701,-1090692789.1094787,-8976781.314360088,167547733.56572202
0.38394108091408763,0.09038665553783518,0.0056500251069974815,-0.02940790225227498,0.011475994558069344,-0.0030009478061495676,0.001377501339522913,2880599015.8630204,542016018.5661197,111259723.57685067
0.6026858582693975,0.019460208623408484,-0.005814284746065149,-0.06609355692010312,-0.005206783709397436,0.0019353948228806317,-0.005015487602393481,-1237437175.8460448,-83700643.70881854,-405097075.57793504
0.7829962504757271,0.03605335402325684,-0.003005013162278642,-0.10312023473192058,-0.0014265347698218436,0.0010572030458408932,-0.00047341274487872065,-275186190.9150668,126032994.69199067,-38237183.240204364
0.6908163935737839,0.039136128018140134,-0.002221462010197199,-0.0836093229628602,-0.0016052454529221093,0.0015061118848455624,0.0010300683876085237,-271319293.9120762,231284583.7273169,83197831.3068423
0.016289907631871277,0.09782951680949062,0.0003266017699823965,-0.00023166082572484358,0.02004933222232634,-0.0017863259697270778,-0.007392669405180239,5451371731.902243,1924073100.8782287,-597100221.1876347
0.005854312374479854,0.03824740321820492,-2.8841221294697347e-05,-6.009443915986315e-05,-0.004926491695322261,0.0006419748021754723,-0.007810957107215128,-1314903589.7602262,-415382078.6259769,-630884997.1212219
0.10012874584450687,0.012936251984674015,-0.001565911509005772,-0.0022846630405805196,-0.014716953552341223,0.004233730366574914,-0.01109758808726092,-3647436844.4229617,-586172519.0595858,-896343653.2018435
0.4838940810218416,0.03633966073919213,-0.0022624619135009406,-0.04475431181775037,-0.003260566277154196,0.0025140524196799463,0.000829581979893107,-617149885.1958274,315673135.0619956,67004698.375981726
0.6976923522404882,0.004374297357806911,-0.009375971512588364,-0.08505943820711945,-0.006741635607042645,0.0014726213143766986,0.0022153701233739997,-1727394791.2106476,-400476365.4429075,178933740.73405385
0.9536444995120372,0.08245569142667428,0.0073287061461818235,-0.14115150798749054,0.0007254175715757372,-0.0001680780800117354,-0.0020933208875210663,184706661.5017193,40372748.55297372,-169075917.83823997
0.4002297481710098,0.06047944748363589,0.0015145061952982894,-0.03157997863844103,0.0027395449498694886,-0.0029215931039662246,-0.007784283814371407,420486042.4633513,-494005489.31011003,-628730615.7761521
0.9707546644479792,0.06870054884985173,0.004227175472291086,-0.14504475990944063,0.0004562948641564646,-0.0007490267092089553,-0.0012915222088696332,38243581.4439156,-156462211.17665222,-104315255.33177808
0.23591555245941087,0.021025166978466545,-0.002708168140544504,-0.011806386546858463,-0.010208610965051776,0.003721283653035909,0.0026266762459398324,-2435047964.8487477,-184834218.84996778,212154619.8643711
0.08371806489348073,0.03856401958145802,-0.0004034822673891741,-0.0016294533542265722,-0.004857743079908962,0.0046406319956845965,0.002126304979839476,-811016186.574015,723336710.2526367,171740017.60241923
0.3359034873516105,0.062095444415411455,0.0015231533106471185,-0.022870464209878823,0.0037119048945091493,-0.003234920956084797,0.00204519916596968,657403844.729813,-464775715.7507475,165189163.4052434
0.7979194512338007,0.07504014878455602,0.005433515417792238,-0.10635367643104549,0.0025616438793166357,-0.0009853144693320326,0.00110615172387038,604782382.0992835,31812187.317575477,89343023.85106915
0.09850915674635151,0.009030233928900833,-0.0017028978133933233,-0.002246002780520455,-0.01740302014637036,0.004271144781559032,0.009146988132530759,-4402234308.227353,-901023050.6387591,738795195.3197922
0.4207227393804569,0.066411946062963,0.0024598038032553225,-0.03471792129240999,0.004290423137821235,-0.002821769878758873,-0.0023980930804475553,871001344.0344472,-277891374.0284932,-193692133.4207641
